 vasp.5.3.3 18Dez12 (build Jun 24 2015 15:58:02) complex

 executed on             LinuxIFC date 2023.04.24  08:21:28

 INCAR:
 POTCAR:    PAW_PBE Ti 08Apr2002
 POTCAR:    PAW_PBE O 08Apr2002

 POTCAR:    PAW_PBE Ti 08Apr2002
   VRHFIN =Ti: d3 s1

   TITEL  = PAW_PBE Ti 08Apr2002
   POMASS =   47.880; ZVAL   =    4.000    mass and valenz
   ENMAX  =  178.330; ENMIN  =  133.747 eV

 POTCAR:    PAW_PBE O 08Apr2002
   VRHFIN =O: s2p4

   TITEL  = PAW_PBE O 08Apr2002
   POMASS =   16.000; ZVAL   =    6.000    mass and valenz
   ENMAX  =  400.000; ENMIN  =  300.000 eV

  PAW_PBE Ti 08Apr2002                  :
  PAW_PBE O 08Apr2002                   :

 POSCAR: Ti2 O4
  positions in direct lattice
 exchange correlation table for  LEXCH =        8
   RHO(1)=    0.500       N(1)  =     2000
   RHO(2)=  100.500       N(2)  =     4000

 ion  position               nearest neighbor table
   1  0.500  0.500  0.000-   6 1.95   3 1.95   3 1.95   6 1.95   5 1.98   4 1.98
   2  0.000  0.000  0.500-   4 1.95   5 1.95   4 1.95   5 1.95   3 1.98   6 1.98
   3  0.696  0.696  0.500-   1 1.95   1 1.95   2 1.98
   4  0.196  0.804  0.000-   2 1.95   2 1.95   1 1.98
   5  0.804  0.196  0.000-   2 1.95   2 1.95   1 1.98
   6  0.304  0.304  0.500-   1 1.95   1 1.95   2 1.98

  LATTYP: Found a simple tetragonal cell.
 ALAT       =     4.5998373239
 C/A-ratio  =     0.6433300466

  Lattice vectors:

 A1 = (   4.5998373239,   0.0000000000,   0.0000000000)
 A2 = (   0.0000000000,   4.5998373239,   0.0000000000)
 A3 = (   0.0000000000,   0.0000000000,   2.9592135600)

Analysis of symmetry for initial positions (statically):
 Subroutine PRICEL returns:
 Original cell was already a primitive cell.

 Routine SETGRP: Setting up the symmetry group for a
 simple tetragonal supercell.

 Subroutine GETGRP returns: Found 16 space group operations
 (whereof  8 operations were pure point group operations)
 out of a pool of 16 trial point group operations.

The static configuration has the point symmetry D_2h.
 The point group associated with its full space group is D_4h.

Analysis of symmetry for dynamics (positions and initial velocities):
 Subroutine PRICEL returns:
 Original cell was already a primitive cell.

 Routine SETGRP: Setting up the symmetry group for a
 simple tetragonal supercell.

 Subroutine GETGRP returns: Found 16 space group operations
 (whereof  8 operations were pure point group operations)
 out of a pool of 16 trial point group operations.

The dynamic configuration has the point symmetry D_2h.
 The point group associated with its full space group is D_4h.

Analysis of magnetic symmetry:

 Subroutine MAGSYM returns: Found 16 space group operations
 (whereof  8 operations were pure point group operations)
 out of a pool of 16 trial space group operations
 (whereof  8 operations were pure point group operations)
 and found also     1 'primitive' translations

The magnetic configuration has the point symmetry D_2h.
 The point group associated with its full space group is D_4h.

 irot  :   1
 isymop:   1   0   0
           0   1   0
           0   0   1

 gtrans:     0.0000000     0.0000000     0.0000000

 ptrans:     0.0000000     0.0000000     0.0000000
 rotmap:
 (   1->   1)  (   2->   2)  (   3->   3)  (   4->   4)  (   5->   5)
 (   6->   6)

[...]

 irot  :  16
 isymop:  -1   0   0
           0   1   0
           0   0   1

 gtrans:     0.5000000     0.5000000     0.5000000

 ptrans:     0.0000000     0.0000000     0.0000000
 rotmap:
 (   1->   2)  (   2->   1)  (   3->   5)  (   4->   6)  (   5->   3)
 (   6->   4)

 KPOINTS: Automatic mesh

Automatic generation of k-mesh.
Space group operators:
 irot       det(A)        alpha          n_x          n_y          n_z        tau_x        tau_y        tau_z
    1     1.000000     0.000001     1.000000     0.000000     0.000000     0.000000     0.000000     0.000000
    2    -1.000000     0.000001     1.000000     0.000000     0.000000     0.000000     0.000000     0.000000
    3     1.000000   180.000000    -0.000000    -0.000000     1.000000     0.000000     0.000000     0.000000
    4    -1.000000   180.000000    -0.000000    -0.000000     1.000000     0.000000     0.000000     0.000000
    5     1.000000   180.000000     0.707107     0.707107     0.000000     0.000000     0.000000     0.000000
    6    -1.000000   180.000000     0.707107     0.707107     0.000000     0.000000     0.000000     0.000000
    7     1.000000   180.000000     0.707107    -0.707107     0.000000     0.000000     0.000000     0.000000
    8    -1.000000   180.000000     0.707107    -0.707107     0.000000     0.000000     0.000000     0.000000
    9     1.000000    90.000000     0.000000     0.000000    -1.000000     0.500000     0.500000     0.500000
   10    -1.000000    90.000000     0.000000     0.000000    -1.000000     0.500000     0.500000     0.500000
   11     1.000000    90.000000    -0.000000    -0.000000     1.000000     0.500000     0.500000     0.500000
   12    -1.000000    90.000000    -0.000000    -0.000000     1.000000     0.500000     0.500000     0.500000
   13     1.000000   180.000000     0.000000     1.000000     0.000000     0.500000     0.500000     0.500000
   14    -1.000000   180.000000     0.000000     1.000000     0.000000     0.500000     0.500000     0.500000
   15     1.000000   180.000000     1.000000    -0.000000     0.000000     0.500000     0.500000     0.500000
   16    -1.000000   180.000000     1.000000    -0.000000     0.000000     0.500000     0.500000     0.500000

 Subroutine IBZKPT returns following result:

 Found     75 irreducible k-points:

 Following reciprocal coordinates:
            Coordinates               Weight
  0.000000  0.000000  0.000000      1.000000
  0.125000  0.000000  0.000000      4.000000
  0.250000  0.000000  0.000000      4.000000
  0.375000  0.000000  0.000000      4.000000
  0.500000  0.000000  0.000000      2.000000
  0.125000  0.125000  0.000000      4.000000
  0.250000  0.125000  0.000000      8.000000
  0.375000  0.125000  0.000000      8.000000
  0.500000  0.125000  0.000000      4.000000
  0.250000  0.250000  0.000000      4.000000
  0.375000  0.250000  0.000000      8.000000
  0.500000  0.250000  0.000000      4.000000
  0.375000  0.375000  0.000000      4.000000
  0.500000  0.375000  0.000000      4.000000
  0.500000  0.500000  0.000000      1.000000
 -0.000000  0.000000  0.125000      2.000000
  0.125000 -0.000000  0.125000      8.000000
  0.250000  0.000000  0.125000      8.000000
  0.375000  0.000000  0.125000      8.000000
  0.500000  0.000000  0.125000      4.000000
  0.125000  0.125000  0.125000      8.000000
  0.250000  0.125000  0.125000     16.000000
  0.375000  0.125000  0.125000     16.000000
  0.500000  0.125000  0.125000      8.000000
  0.250000  0.250000  0.125000      8.000000
  0.375000  0.250000  0.125000     16.000000
  0.500000  0.250000  0.125000      8.000000
  0.375000  0.375000  0.125000      8.000000
  0.500000  0.375000  0.125000      8.000000
  0.500000  0.500000  0.125000      2.000000
 -0.000000  0.000000  0.250000      2.000000
  0.125000  0.000000  0.250000      8.000000
  0.250000 -0.000000  0.250000      8.000000
  0.375000  0.000000  0.250000      8.000000
  0.500000  0.000000  0.250000      4.000000
  0.125000  0.125000  0.250000      8.000000
  0.250000  0.125000  0.250000     16.000000
  0.375000  0.125000  0.250000     16.000000
  0.500000  0.125000  0.250000      8.000000
  0.250000  0.250000  0.250000      8.000000
  0.375000  0.250000  0.250000     16.000000
  0.500000  0.250000  0.250000      8.000000
  0.375000  0.375000  0.250000      8.000000
  0.500000  0.375000  0.250000      8.000000
  0.500000  0.500000  0.250000      2.000000
  0.000000  0.000000  0.375000      2.000000
  0.125000  0.000000  0.375000      8.000000
  0.250000  0.000000  0.375000      8.000000
  0.375000  0.000000  0.375000      8.000000
  0.500000  0.000000  0.375000      4.000000
  0.125000  0.125000  0.375000      8.000000
  0.250000  0.125000  0.375000     16.000000
  0.375000  0.125000  0.375000     16.000000
  0.500000  0.125000  0.375000      8.000000
  0.250000  0.250000  0.375000      8.000000
  0.375000  0.250000  0.375000     16.000000
  0.500000  0.250000  0.375000      8.000000
  0.375000  0.375000  0.375000      8.000000
  0.500000  0.375000  0.375000      8.000000
  0.500000  0.500000  0.375000      2.000000
 -0.000000  0.000000  0.500000      1.000000
  0.125000  0.000000  0.500000      4.000000
  0.250000  0.000000  0.500000      4.000000
  0.375000  0.000000  0.500000      4.000000
  0.500000 -0.000000  0.500000      2.000000
  0.125000  0.125000  0.500000      4.000000
  0.250000  0.125000  0.500000      8.000000
  0.375000  0.125000  0.500000      8.000000
  0.500000  0.125000  0.500000      4.000000
  0.250000  0.250000  0.500000      4.000000
  0.375000  0.250000  0.500000      8.000000
  0.500000  0.250000  0.500000      4.000000
  0.375000  0.375000  0.500000      4.000000
  0.500000  0.375000  0.500000      4.000000
  0.500000  0.500000  0.500000      1.000000

 Following cartesian coordinates:
            Coordinates               Weight
  0.000000  0.000000  0.000000      1.000000
  0.027175 -0.000000  0.000000      4.000000
  0.054350 -0.000000  0.000000      4.000000
  0.081525 -0.000000  0.000000      4.000000
  0.108699 -0.000000  0.000000      2.000000
  0.027175  0.027175  0.000000      4.000000
  0.054350  0.027175  0.000000      8.000000
  0.081525  0.027175  0.000000      8.000000
  0.108699  0.027175  0.000000      4.000000
  0.054350  0.054350  0.000000      4.000000
  0.081525  0.054350  0.000000      8.000000
  0.108699  0.054350  0.000000      4.000000
  0.081525  0.081525  0.000000      4.000000
  0.108699  0.081525  0.000000      4.000000
  0.108699  0.108699  0.000000      1.000000
 -0.000000 -0.000000  0.042241      2.000000
  0.027175 -0.000000  0.042241      8.000000
  0.054350 -0.000000  0.042241      8.000000
  0.081525 -0.000000  0.042241      8.000000
  0.108699 -0.000000  0.042241      4.000000
  0.027175  0.027175  0.042241      8.000000
  0.054350  0.027175  0.042241     16.000000
  0.081525  0.027175  0.042241     16.000000
  0.108699  0.027175  0.042241      8.000000
  0.054350  0.054350  0.042241      8.000000
  0.081525  0.054350  0.042241     16.000000
  0.108699  0.054350  0.042241      8.000000
  0.081525  0.081525  0.042241      8.000000
  0.108699  0.081525  0.042241      8.000000
  0.108699  0.108699  0.042241      2.000000
 -0.000000 -0.000000  0.084482      2.000000
  0.027175 -0.000000  0.084482      8.000000
  0.054350 -0.000000  0.084482      8.000000
  0.081525 -0.000000  0.084482      8.000000
  0.108699 -0.000000  0.084482      4.000000
  0.027175  0.027175  0.084482      8.000000
  0.054350  0.027175  0.084482     16.000000
  0.081525  0.027175  0.084482     16.000000
  0.108699  0.027175  0.084482      8.000000
  0.054350  0.054350  0.084482      8.000000
  0.081525  0.054350  0.084482     16.000000
  0.108699  0.054350  0.084482      8.000000
  0.081525  0.081525  0.084482      8.000000
  0.108699  0.081525  0.084482      8.000000
  0.108699  0.108699  0.084482      2.000000
[...]
   IXMIN=   -8   IYMIN=   -8   IZMIN=   -5

 NGX is ok and might be reduce to  34
 NGY is ok and might be reduce to  34
 NGZ is ok and might be reduce to  22

 serial   3D FFT for wavefunctions
 parallel 3D FFT for charge:
    minimum data exchange during FFTs selected (reduces bandwidth)

 Broyden mixing: mesh for mixing (old mesh)
   NGX = 17   NGY = 17   NGZ = 11
  (NGX  = 72   NGY  = 72   NGZ  = 48)
  gives a total of   3179 points

 initial charge density was supplied:
 charge density of overlapping atoms calculated
 number of electron      32.0000000 magnetization       6.0000000
 keeping initial charge density in first step

 Maximum index for augmentation-charges         2320 (set IRDMAX)

 First call to EWALD:  gamma=   0.446
 Maximum number of real-space cells 2x 2x 4
 Maximum number of reciprocal cells 3x 3x 2

 FEWALD executed in parallel

----------------------------------------- Iteration    1(   1)  ---------------------------------------

 eigenvalue-minimisations  :  9600
 total energy-change (2. order) : 0.9830628E+02  (-0.1701222E+04)
 number of electron      32.0000000 magnetization       6.0000000
 augmentation part       32.0000000 magnetization       6.0000000

 Free energy of the ion-electron system (eV)
  alpha Z        PSCENC =       137.40316384
  Ewald energy   TEWEN  =     -1577.85481303
  -1/2 Hartree   DENC   =      -438.95371508
  -exchange  EXHF       =         0.00000000
  -V(xc)+E(xc)   XCENC  =        37.16612462
  PAW double counting   =      1636.44140823    -1562.71594685
  entropy T*S    EENTRO =        -0.00258348
  eigenvalues    EBANDS =       -52.18838484
  atomic energy  EATOM  =      1919.01102819
  free energy    TOTEN  =        98.30628160 eV

  energy without entropy =       98.30886508  energy(sigma->0) =       98.30757334

[...]

 eigenvalue-minimisations  : 11680
 total energy-change (2. order) :-0.1638945E+03  (-0.1607495E+03)
 number of electron      32.0000000 magnetization       6.0000000
 augmentation part       32.0000000 magnetization       6.0000000

[...]

 Broyden mixing:
  rms(total) = 0.44347E+01    rms(broyden)= 0.44345E+01
  rms(prec ) = 0.65559E+01
  weight for this iteration     100.00

[...]

 eigenvalues of (default mixing * dielectric matrix)
  average eigenvalue GAMMA=   0.9178
  0.9178

[...]

 average (electrostatic) potential at core
  the test charge radii are     1.2598  0.7215
  (the norm of the test charge is              1.0000)
       1 -28.0023       2 -28.0023       3 -72.3433       4 -72.3433       5 -72.3433
       6 -72.3433

 E-fermi :   2.1365     XC(G=0): -11.1707     alpha+bet :-10.8529

 spin component 1

 k-point   1 :       0.0000    0.0000    0.0000
  band No.  band energies     occupation
      1     -16.3524      1.00000
      2     -15.1604      1.00000
      3     -14.5812      1.00000
      4     -14.5812      1.00000
      5      -3.8893      1.00000
      6      -3.4817      1.00000
      7      -3.0287      1.00000
      8      -1.9631      1.00000
      9      -1.9631      1.00000
     10      -0.6737      1.00000
     11      -0.6737      1.00000
     12      -0.0972      1.00000
     13       1.2158      1.00000
     14       1.4766      1.00000
     15       1.4766      1.00000
     16       1.8600      1.00000
     17       3.5561      0.00000
     18       3.8558      0.00000
     19       4.0839      0.00000
     20       4.1621      0.00000
     21       4.1621      0.00000
     22       6.0063      0.00000
     23       6.2249      0.00000
     24       8.2169      0.00000
     25       8.2169      0.00000
     26       9.2371      0.00000
     27       9.7776      0.00000
     28      13.0917      0.00000
     29      13.0917      0.00000
     30      16.4084      0.00000
     31      17.5217      0.00000
     32      18.4030      0.00000

[...]

 soft charge-density along one line, spin component           1
         0         1         2         3         4         5         6         7         8         9
 total charge-density along one line

[...]

------------------------ aborting loop because EDIFF is reached ----------------------------------------

 total charge

# of ion     s       p       d       tot
  1        0.552   1.101   2.584   4.237
  2        0.561   1.070   2.612   4.243
  3        1.578   3.470   0.000   5.048
  4        1.577   3.486   0.000   5.063
  5        1.577   3.486   0.000   5.063
  6        1.578   3.470   0.000   5.048
tot        7.424  16.082   5.196  28.702

 magnetization (x)

[...]

  FORCE on cell =-STRESS in cart. coord.  units (eV):
  Direction    XX          YY          ZZ          XY          YZ          ZX
  Alpha Z   137.40316   137.40316   137.40316
  Ewald    -563.39262  -563.39262  -451.07133    -0.00000    -0.00000    -0.00000
  Hartree   160.91917   160.91917   178.93315    -0.00000    -0.00000    -0.00000
  E(xc)    -153.02501  -153.02501  -153.96703     0.00000    -0.00000    -0.00000
  Local    -106.04681  -106.04681  -225.10185     0.00000    -0.00000    -0.00000
  n-local   -93.30705   -94.47409   -91.13005    -0.05209     0.13302    -0.09862
  augment    37.08228    37.08228    36.34241    -0.00000     0.00000     0.00000
  Kinetic   584.13119   583.43130   571.16632    -1.07377    -0.78471    -1.30746
  Fock        0.00000     0.00000     0.00000     0.00000     0.00000     0.00000
  Total       2.83085     2.83085     2.57479     0.00000     0.00000     0.00000
  in kB      72.43793    72.43793    65.88570     0.00000     0.00000     0.00000

 VOLUME and BASIS-vectors are now :
  energy-cutoff  :      500.00
  volume of cell :       62.61
      direct lattice vectors                 reciprocal lattice vectors
     4.599837324  0.000000000  0.000000000     0.217398993 -0.000000000  0.000000000
     0.000000000  4.599837324  0.000000000     0.000000000  0.217398993  0.000000000
     0.000000000  0.000000000  2.959213560    -0.000000000 -0.000000000  0.337927622

[...]

 FORCES acting on ions
    electron-ion (+dipol)            ewald-force                    non-local-force                 convergence-correction
   0.162E-12 0.168E-12 0.165E-13   0.000E+00 0.000E+00 -.591E-14   0.800E-25 0.000E+00 0.000E+00   0.481E-14 -.201E-15 0.377E-14
   0.306E-15 0.198E-14 0.136E-13   0.213E-13 -.284E-13 -.575E-14   0.842E-25 0.000E+00 0.000E+00   0.823E-14 0.987E-14 0.380E-14
   -.166E+02 -.166E+02 0.667E-06   0.196E+02 0.196E+02 -.434E-13   -.300E+01 -.300E+01 -.403E-15   -.405E-03 -.405E-03 -.828E-13
   -.166E+02 0.166E+02 0.160E-11   0.196E+02 -.196E+02 -.880E-16   -.300E+01 0.300E+01 0.347E-17   -.405E-03 0.405E-03 -.888E-13
   0.166E+02 -.166E+02 -.498E-11   -.196E+02 0.196E+02 0.344E-14   0.300E+01 -.300E+01 -.347E-17   0.405E-03 -.405E-03 -.405E-13
   0.166E+02 0.166E+02 -.667E-06   -.196E+02 -.196E+02 0.473E-13   0.300E+01 0.300E+01 0.403E-15   0.405E-03 0.405E-03 -.551E-13
   0.139E-12 -.275E-13 0.726E-12   0.355E-14 -.107E-13 -.436E-14   -.444E-15 -.444E-15 0.000E+00   0.200E-14 0.235E-13 -.260E-12

 POSITION                                       TOTAL-FORCE (eV/Angst)
      2.29992      2.29992      0.00000        -0.000000      0.000000     -0.000000
      0.00000      0.00000      1.47961         0.000000      0.000000     -0.000000
      3.20001      3.20001      1.47961         0.071252      0.071252      0.000000
      0.90009      3.69975      0.00000         0.071252     -0.071252     -0.000000
      3.69975      0.90009      0.00000        -0.071252      0.071252      0.000000
      1.39983      1.39983      1.47961        -0.071252     -0.071252     -0.000000
    total drift:                                0.000000     -0.000000      0.000000

  FREE ENERGIE OF THE ION-ELECTRON SYSTEM (eV)
  free  energy   TOTEN  =       -52.77760810 eV

  energy  without entropy=      -52.77760810  energy(sigma->0) =      -52.77760810

[...]

 d Force =-0.2008614E-02[-0.602E-02, 0.200E-02]  d Energy =-0.3656124E-01 0.346E-01
 d Force = 0.5327988E+00[ 0.513E+00, 0.553E+00]  d Ewald  =-0.3370287E+02 0.342E+02

 Steepest descent step on ions:
 trial-energy change:    0.036561  1 .order    0.031546   -0.184131    0.247223
  (g-gl).g = 0.184E+00      g.g   = 0.184E+00  gl.gl    = 0.000E+00
 g(Force)  = 0.196E-02   g(Stress)= 0.182E+00 ortho     = 0.000E+00
 gamma     =   0.00000
 trial     =   1.00000
 opt step  =   0.40999  (harmonic =   0.42687) maximal distance =0.00140931
 next E    =   -52.815009   (d E  =  -0.03740)

[...]

 d Force = 0.2158901E-02[ 0.890E-03, 0.343E-02]  d Energy = 0.7335713E-01-0.712E-01
 d Force =-0.2985380E+00[-0.305E+00,-0.292E+00]  d Ewald  = 0.1971398E+02-0.200E+02

[...]

 d Force = 0.7701376E-05[ 0.761E-05, 0.779E-05]  d Energy = 0.1934717E-05 0.577E-05
 d Force =-0.2670815E-02[-0.267E-02,-0.267E-02]  d Ewald  = 0.1725334E+00-0.175E+00

[...]

 d Force = 0.5951227E-03[ 0.219E-03, 0.972E-03]  d Energy = 0.2982023E-02-0.239E-02
 d Force =-0.3498692E+00[-0.359E+00,-0.341E+00]  d Ewald  =-0.1725297E+01 0.138E+01

 Conjugate gradient step on ions:
 trial-energy change:   -0.002982  1 .order   -0.002988   -0.004633   -0.001342
  (g-gl).g = 0.465E-02      g.g   = 0.524E-02  gl.gl    = 0.184E+00
 g(Force)  = 0.114E-02   g(Stress)= 0.411E-02 ortho     = 0.590E-03
 gamma     =   0.02528
 trial     =   0.88098
 opt step  =   1.24025  (harmonic =   1.24025) maximal distance =0.00314079
 next E    =   -52.817667   (d E  =  -0.00326)

 FEWALD executed in parallel

[...]

 eigenvalue-minimisations  :  9600
 total energy-change (2. order) :-0.7960229E-03  (-0.9570225E-02)
 number of electron      32.0000012 magnetization       0.0000000
 augmentation part        4.3675643 magnetization      -0.0000000

[...]

 Broyden mixing:
  rms(total) = 0.13891E-02    rms(broyden)= 0.13883E-02
  rms(prec ) = 0.25390E-02
  weight for this iteration     100.00

 eigenvalues of (default mixing * dielectric matrix)
  average eigenvalue GAMMA=   1.2931
  2.0967  1.2381  0.5444

[...]

----------------------------------------- Iteration    6(   5)  ---------------------------------------

 eigenvalue-minimisations  :  5440
 total energy-change (2. order) : 0.2009673E-05  (-0.1412883E-05)
 number of electron      32.0000012 magnetization      -0.0000000
 augmentation part        4.3652107 magnetization       0.0000000

 Free energy of the ion-electron system (eV)
  alpha Z        PSCENC =       133.45664696
  Ewald energy   TEWEN  =     -1561.60361285
  -1/2 Hartree   DENC   =      -507.63364813
  -exchange  EXHF       =         0.00000000
  -V(xc)+E(xc)   XCENC  =        42.39357273
  PAW double counting   =      2939.50829664    -2866.81203155
  entropy T*S    EENTRO =        -0.00000000
  eigenvalues    EBANDS =      -151.13789894
  atomic energy  EATOM  =      1919.01102819
  free energy    TOTEN  =       -52.81764693 eV

  energy without entropy =      -52.81764693  energy(sigma->0) =      -52.81764693

 average (electrostatic) potential at core
  the test charge radii are     1.2598  0.7215
  (the norm of the test charge is              1.0000)
       1 -28.3300       2 -28.3300       3 -72.5633       4 -72.5633       5 -72.5633
       6 -72.5633

 E-fermi :   1.7949     XC(G=0): -11.0165     alpha+bet :-10.5412

[...]

 spin component 2

[...]

 k-point  75 :       0.5000    0.5000    0.5000
  band No.  band energies     occupation
      1     -15.2412      1.00000
      2     -15.2412      1.00000
      3     -15.0683      1.00000
      4     -15.0683      1.00000
      5      -2.9150      1.00000
      6      -2.9150      1.00000
      7      -2.8393      1.00000
      8      -2.8393      1.00000
      9      -1.8224      1.00000
     10      -1.8224      1.00000
     11      -1.1212      1.00000
     12      -1.1212      1.00000
     13       0.4055      1.00000
     14       0.4055      1.00000
     15       0.9398      1.00000
     16       0.9398      1.00000
     17       3.9638      0.00000
     18       3.9638      0.00000
     19       4.5401      0.00000
     20       4.5401      0.00000
     21       4.5548      0.00000
     22       4.5548      0.00000
     23       7.0395      0.00000
     24       7.0395      0.00000
     25       7.1685      0.00000
     26       7.1685      0.00000
     27      13.1823      0.00000
     28      13.1823      0.00000
     29      14.9825      0.00000
     30      14.9825      0.00000
     31      16.0535      0.00000
     32      16.0535      0.00000

[...]

 soft charge-density along one line, spin component           2
         0         1         2         3         4         5         6         7         8         9
 total charge-density along one line

------------------------ aborting loop because EDIFF is reached ----------------------------------------

[...]

  FORCE on cell =-STRESS in cart. coord.  units (eV):
  Direction    XX          YY          ZZ          XY          YZ          ZX
  Alpha Z   133.45665   133.45665   133.45665
  Ewald    -559.23472  -559.23472  -443.13592    -0.00000     0.00000     0.00000
  Hartree   162.35680   162.35680   182.91417    -0.00000    -0.00000    -0.00000
  E(xc)    -152.36246  -152.36246  -153.32308     0.00000    -0.00000     0.00000
  Local    -108.32914  -108.32914  -234.00039     0.00000     0.00000    -0.00000
  n-local   -94.05384   -95.09681   -91.87166    -0.01993     0.12679    -0.07969
  augment    37.07163    37.07163    36.38587     0.00000    -0.00000     0.00000
  Kinetic   581.95789   581.29827   569.57831    -1.07167    -0.72737    -1.24442
  Fock        0.00000     0.00000     0.00000     0.00000     0.00000     0.00000
  Total       0.01152     0.01152     0.00394    -0.00000     0.00000     0.00000
  in kB       0.28621     0.28621     0.09798    -0.00000     0.00000     0.00000

 VOLUME and BASIS-vectors are now :
  energy-cutoff  :      500.00
  volume of cell :       64.46
      direct lattice vectors                 reciprocal lattice vectors
     4.659657842  0.000000000  0.000000000     0.214608032 -0.000000000 -0.000000000
     0.000000000  4.659657842  0.000000000    -0.000000000  0.214608032 -0.000000000
     0.000000000  0.000000000  2.968996752    -0.000000000 -0.000000000  0.336814110

  length of vectors
     4.659657842  4.659657842  2.968996752     0.214608032  0.214608032  0.336814110

 FORCES acting on ions
    electron-ion (+dipol)            ewald-force                    non-local-force                 convergence-correction
   0.157E-12 0.173E-12 0.182E-13   0.213E-13 0.000E+00 0.382E-14   0.152E-24 0.199E-26 0.000E+00   0.131E-13 0.300E-14 -.390E-13
   0.735E-14 0.128E-13 0.152E-13   0.711E-14 -.711E-14 0.393E-14   0.401E-25 -.211E-26 0.000E+00   -.967E-14 0.141E-15 0.303E-13
   -.172E+02 -.172E+02 0.648E-06   0.205E+02 0.205E+02 -.333E-14   -.325E+01 -.325E+01 -.430E-15   -.404E-02 -.404E-02 0.225E-12
   -.172E+02 0.172E+02 0.217E-11   0.205E+02 -.205E+02 -.138E-14   -.325E+01 0.325E+01 0.000E+00   -.404E-02 0.404E-02 -.214E-12
   0.172E+02 -.172E+02 -.507E-11   -.205E+02 0.205E+02 -.125E-14   0.325E+01 -.325E+01 0.000E+00   0.404E-02 -.404E-02 0.112E-13
   0.172E+02 0.172E+02 -.648E-06   -.205E+02 -.205E+02 0.832E-15   0.325E+01 0.325E+01 0.430E-15   0.404E-02 0.404E-02 0.109E-12
   0.192E-11 0.500E-11 -.398E-11   0.355E-14 0.107E-13 0.262E-14   -.444E-15 0.000E+00 0.000E+00   0.128E-13 0.655E-13 0.122E-12

 POSITION                                       TOTAL-FORCE (eV/Angst)
      2.32983      2.32983      0.00000         0.000000      0.000000     -0.000000
      0.00000      0.00000      1.48450         0.000000     -0.000000     -0.000000
      3.23993      3.23993      1.48450         0.005253      0.005253      0.000000
      0.91010      3.74956      0.00000         0.005253     -0.005253     -0.000000
      3.74956      0.91010      0.00000        -0.005253      0.005253      0.000000
      1.41973      1.41973      1.48450        -0.005253     -0.005253     -0.000000
    total drift:                                0.000000      0.000000     -0.000000

  FREE ENERGIE OF THE ION-ELECTRON SYSTEM (eV)
  free  energy   TOTEN  =       -52.81764693 eV

  energy  without entropy=      -52.81764693  energy(sigma->0) =      -52.81764693

 d Force = 0.2537202E-04[-0.383E-04, 0.890E-04]  d Energy = 0.2589838E-03-0.234E-03
 d Force =-0.1475370E+00[-0.149E+00,-0.146E+00]  d Ewald  =-0.7095465E+00 0.562E+00

 reached required accuracy - stopping structural energy minimisation
 writing wavefunctions

 total charge

[...]

 magnetization (x)

# of ion     s       p       d       tot
  1        0.000  -0.000  -0.000  -0.000
  2       -0.000   0.000  -0.000  -0.000
  3       -0.000  -0.000   0.000  -0.000
  4       -0.000  -0.000   0.000  -0.000
  5       -0.000  -0.000   0.000  -0.000
  6       -0.000  -0.000   0.000  -0.000
tot       -0.000  -0.000  -0.000  -0.000