 vasp.5.3.3 18Dez12 (build Jun 24 2015 15:58:02) complex

 executed on             LinuxIFC date 2023.04.24  06:51:46

 INCAR:
 POTCAR:    PAW_PBE Na 08Apr2002
 POTCAR:    PAW_PBE Cl 06Sep2000

 POTCAR:    PAW_PBE Na 08Apr2002
   VRHFIN =Na: s1p0

   TITEL  = PAW_PBE Na 08Apr2002
   POMASS =   22.990; ZVAL   =    1.000    mass and valenz
   ENMAX  =  101.968; ENMIN  =   76.476 eV

 POTCAR:    PAW_PBE Cl 06Sep2000
   VRHFIN =Cl: s2p5

   TITEL  = PAW_PBE Cl 06Sep2000
   POMASS =   35.453; ZVAL   =    7.000    mass and valenz
   ENMAX  =  262.472; ENMIN  =  196.854 eV

  PAW_PBE Na 08Apr2002                  :
  PAW_PBE Cl 06Sep2000                  :

 POSCAR: NaCl
  positions in direct lattice
 exchange correlation table for  LEXCH =        8
   RHO(1)=    0.500       N(1)  =     2000
   RHO(2)=  100.500       N(2)  =     4000

 ion  position               nearest neighbor table
   1  0.000  0.000  0.000-   5 2.80   6 2.80   7 2.80   5 2.80   6 2.80   7 2.80   2 3.96   3 3.96
                             2 3.96   2 3.96   4 3.96   3 3.96   2 3.96   3 3.96   4 3.96   4 3.96
   2  0.000  0.500  0.500-   5 2.80   6 2.80   8 2.80   6 2.80   5 2.80   8 2.80   1 3.96   4 3.96
                             1 3.96   1 3.96   3 3.96   3 3.96   1 3.96   3 3.96   4 3.96   4 3.96
   3  0.500  0.000  0.500-   5 2.80   7 2.80   8 2.80   7 2.80   8 2.80   5 2.80   1 3.96   4 3.96
                             1 3.96   2 3.96   4 3.96   2 3.96   4 3.96   1 3.96   2 3.96   4 3.96
   4  0.500  0.500  0.000-   6 2.80   7 2.80   8 2.80   8 2.80   7 2.80   6 2.80   2 3.96   3 3.96
                             1 3.96   1 3.96   3 3.96   2 3.96   3 3.96   1 3.96   2 3.96   3 3.96
   5  0.000  0.000  0.500-   1 2.80   2 2.80   3 2.80   1 2.80   2 2.80   3 2.80
   6  0.000  0.500  0.000-   1 2.80   2 2.80   4 2.80   2 2.80   1 2.80   4 2.80
   7  0.500  0.000  0.000-   1 2.80   3 2.80   4 2.80   3 2.80   4 2.80   1 2.80
   8  0.500  0.500  0.500-   2 2.80   3 2.80   4 2.80   4 2.80   3 2.80   2 2.80

  LATTYP: Found a simple cubic cell.
 ALAT       =     5.6000000000

  Lattice vectors:

 A1 = (   5.6000000000,   0.0000000000,   0.0000000000)
 A2 = (   0.0000000000,   5.6000000000,   0.0000000000)
 A3 = (   0.0000000000,   0.0000000000,   5.6000000000)

Analysis of symmetry for initial positions (statically):
 Subroutine PRICEL returns following result:

  LATTYP: Found a face centered cubic cell.
 ALAT       =     5.6000000000

[...]

   4 primitive cells build up your supercell.

 Routine SETGRP: Setting up the symmetry group for a
 simple cubic supercell.

 Subroutine GETGRP returns: Found 48 space group operations
 (whereof 48 operations were pure point group operations)
 out of a pool of 48 trial point group operations.

The static configuration has the point symmetry O_h .

Analysis of symmetry for dynamics (positions and initial velocities):
 Subroutine PRICEL returns following result:

  LATTYP: Found a face centered cubic cell.
 ALAT       =     5.6000000000

  Lattice vectors:

 A1 = (   2.8000000000,   2.8000000000,   0.0000000000)
 A2 = (   2.8000000000,   0.0000000000,  -2.8000000000)
 A3 = (   0.0000000000,   2.8000000000,  -2.8000000000)

   4 primitive cells build up your supercell.

 Routine SETGRP: Setting up the symmetry group for a
 simple cubic supercell.

 Subroutine GETGRP returns: Found 48 space group operations
 (whereof 48 operations were pure point group operations)
 out of a pool of 48 trial point group operations.

The dynamic configuration has the point symmetry O_h .

Analysis of magnetic symmetry:

 Subroutine MAGSYM returns: Found 48 space group operations
 (whereof 48 operations were pure point group operations)
 out of a pool of 48 trial space group operations
 (whereof 48 operations were pure point group operations)
 and found also     4 'primitive' translations

The magnetic configuration has the point symmetry O_h .

 irot  :   1
 isymop:   1   0   0
           0   1   0
           0   0   1

 gtrans:     0.0000000     0.0000000     0.0000000

 ptrans:     0.0000000     0.0000000     0.0000000
 rotmap:
 (   1->   1)  (   2->   2)  (   3->   3)  (   4->   4)  (   5->   5)
 (   6->   6)  (   7->   7)  (   8->   8)

[...]

 irot  :  48
 isymop:   0   0   1
           0   1   0
           1   0   0

 gtrans:     0.0000000     0.0000000     0.0000000

[...]

 ptrans:     0.0000000     0.5000000     0.5000000
 rotmap:
 (   1->   2)  (   2->   3)  (   3->   4)  (   4->   1)  (   5->   8)
 (   6->   5)  (   7->   6)  (   8->   7)

 KPOINTS: Automatic mesh

Automatic generation of k-mesh.
Space group operators:
 irot       det(A)        alpha          n_x          n_y          n_z        tau_x        tau_y        tau_z
    1     1.000000     0.000000     1.000000     0.000000     0.000000     0.000000     0.000000     0.000000
    2    -1.000000     0.000000     1.000000     0.000000     0.000000     0.000000     0.000000     0.000000
    3     1.000000   120.000000    -0.577350    -0.577350    -0.577350     0.000000     0.000000     0.000000
    4    -1.000000   120.000000    -0.577350    -0.577350    -0.577350     0.000000     0.000000     0.000000
    5     1.000000   120.000000     0.577350     0.577350     0.577350     0.000000     0.000000     0.000000
    6    -1.000000   120.000000     0.577350     0.577350     0.577350     0.000000     0.000000     0.000000
    7     1.000000    90.000000     0.000000     0.000000    -1.000000     0.000000     0.000000     0.000000
    8    -1.000000    90.000000     0.000000     0.000000    -1.000000     0.000000     0.000000     0.000000
    9     1.000000   180.000000     0.000000     0.707107     0.707107     0.000000     0.000000     0.000000
   10    -1.000000   180.000000     0.000000     0.707107     0.707107     0.000000     0.000000     0.000000
   11     1.000000    90.000000     0.000000     1.000000     0.000000     0.000000     0.000000     0.000000
   12    -1.000000    90.000000     0.000000     1.000000     0.000000     0.000000     0.000000     0.000000
   13     1.000000   180.000000     0.000000     0.000000     1.000000     0.000000     0.000000     0.000000
   14    -1.000000   180.000000     0.000000     0.000000     1.000000     0.000000     0.000000     0.000000
   15     1.000000   120.000000    -0.577350     0.577350     0.577350     0.000000     0.000000     0.000000
   16    -1.000000   120.000000    -0.577350     0.577350     0.577350     0.000000     0.000000     0.000000
   17     1.000000   120.000000    -0.577350     0.577350    -0.577350     0.000000     0.000000     0.000000
   18    -1.000000   120.000000    -0.577350     0.577350    -0.577350     0.000000     0.000000     0.000000
   19     1.000000    90.000000     0.000000     0.000000     1.000000     0.000000     0.000000     0.000000
   20    -1.000000    90.000000     0.000000     0.000000     1.000000     0.000000     0.000000     0.000000
   21     1.000000    90.000000    -1.000000     0.000000     0.000000     0.000000     0.000000     0.000000
   22    -1.000000    90.000000    -1.000000     0.000000     0.000000     0.000000     0.000000     0.000000
   23     1.000000   180.000000     0.707107     0.000000     0.707107     0.000000     0.000000     0.000000
   24    -1.000000   180.000000     0.707107     0.000000     0.707107     0.000000     0.000000     0.000000
   25     1.000000   120.000000     0.577350    -0.577350     0.577350     0.000000     0.000000     0.000000
   26    -1.000000   120.000000     0.577350    -0.577350     0.577350     0.000000     0.000000     0.000000
   27     1.000000   120.000000    -0.577350    -0.577350     0.577350     0.000000     0.000000     0.000000
   28    -1.000000   120.000000    -0.577350    -0.577350     0.577350     0.000000     0.000000     0.000000
   29     1.000000   180.000000     1.000000     0.000000     0.000000     0.000000     0.000000     0.000000
   30    -1.000000   180.000000     1.000000     0.000000     0.000000     0.000000     0.000000     0.000000
   31     1.000000    90.000000     0.000000    -1.000000     0.000000     0.000000     0.000000     0.000000
   32    -1.000000    90.000000     0.000000    -1.000000     0.000000     0.000000     0.000000     0.000000
   33     1.000000   180.000000     0.707107     0.707107     0.000000     0.000000     0.000000     0.000000
   34    -1.000000   180.000000     0.707107     0.707107     0.000000     0.000000     0.000000     0.000000
   35     1.000000    90.000000     1.000000     0.000000     0.000000     0.000000     0.000000     0.000000
   36    -1.000000    90.000000     1.000000     0.000000     0.000000     0.000000     0.000000     0.000000
   37     1.000000   120.000000     0.577350    -0.577350    -0.577350     0.000000     0.000000     0.000000
   38    -1.000000   120.000000     0.577350    -0.577350    -0.577350     0.000000     0.000000     0.000000
   39     1.000000   180.000000     0.000000     1.000000     0.000000     0.000000     0.000000     0.000000
   40    -1.000000   180.000000     0.000000     1.000000     0.000000     0.000000     0.000000     0.000000
   41     1.000000   120.000000     0.577350     0.577350    -0.577350     0.000000     0.000000     0.000000
   42    -1.000000   120.000000     0.577350     0.577350    -0.577350     0.000000     0.000000     0.000000
   43     1.000000   180.000000     0.000000    -0.707107     0.707107     0.000000     0.000000     0.000000
   44    -1.000000   180.000000     0.000000    -0.707107     0.707107     0.000000     0.000000     0.000000
   45     1.000000   180.000000     0.707107    -0.707107     0.000000     0.000000     0.000000     0.000000
   46    -1.000000   180.000000     0.707107    -0.707107     0.000000     0.000000     0.000000     0.000000
   47     1.000000   180.000000     0.707107     0.000000    -0.707107     0.000000     0.000000     0.000000
   48    -1.000000   180.000000     0.707107     0.000000    -0.707107     0.000000     0.000000     0.000000

 Subroutine IBZKPT returns following result:

 Found     35 irreducible k-points:

 Following reciprocal coordinates:
            Coordinates               Weight
  0.000000  0.000000  0.000000      1.000000
  0.125000  0.000000  0.000000      6.000000
  0.250000  0.000000  0.000000      6.000000
  0.375000  0.000000  0.000000      6.000000
  0.500000  0.000000  0.000000      3.000000
  0.125000  0.125000  0.000000     12.000000
  0.250000  0.125000  0.000000     24.000000
  0.375000  0.125000  0.000000     24.000000
  0.500000  0.125000  0.000000     12.000000
  0.250000  0.250000  0.000000     12.000000
  0.375000  0.250000  0.000000     24.000000
  0.500000  0.250000  0.000000     12.000000
  0.375000  0.375000  0.000000     12.000000
  0.500000  0.375000  0.000000     12.000000
  0.500000  0.500000  0.000000      3.000000
  0.125000  0.125000  0.125000      8.000000
  0.250000  0.125000  0.125000     24.000000
  0.375000  0.125000  0.125000     24.000000
  0.500000  0.125000  0.125000     12.000000
  0.250000  0.250000  0.125000     24.000000
  0.375000  0.250000  0.125000     48.000000
  0.500000  0.250000  0.125000     24.000000
  0.375000  0.375000  0.125000     24.000000
[...]
 NGZ is ok and might be reduce to  42

 serial   3D FFT for wavefunctions
 parallel 3D FFT for charge:
    minimum data exchange during FFTs selected (reduces bandwidth)

 Broyden mixing: mesh for mixing (old mesh)
   NGX = 21   NGY = 21   NGZ = 21
  (NGX  = 84   NGY  = 84   NGZ  = 84)
  gives a total of   9261 points

 initial charge density was supplied:
 charge density of overlapping atoms calculated
 number of electron      32.0000000 magnetization       8.0000000
 keeping initial charge density in first step

 Maximum index for augmentation-charges          885 (set IRDMAX)

 First call to EWALD:  gamma=   0.317
 Maximum number of real-space cells 3x 3x 3
 Maximum number of reciprocal cells 3x 3x 3

 FEWALD executed in parallel

----------------------------------------- Iteration    1(   1)  ---------------------------------------

 eigenvalue-minimisations  :  4480
 total energy-change (2. order) : 0.1703632E+03  (-0.1296642E+04)
 number of electron      32.0000000 magnetization       8.0000000
 augmentation part       32.0000000 magnetization       8.0000000

 Free energy of the ion-electron system (eV)
  alpha Z        PSCENC =         8.64093367
  Ewald energy   TEWEN  =     -1257.40674301
  -1/2 Hartree   DENC   =      -360.25372583
  -exchange  EXHF       =         0.00000000
  -V(xc)+E(xc)   XCENC  =       -63.79751115
  PAW double counting   =      1459.78591559    -1310.19949144
  entropy T*S    EENTRO =        -0.00203399
  eigenvalues    EBANDS =        34.07201469
  atomic energy  EATOM  =      1659.52381812
  free energy    TOTEN  =       170.36317664 eV

  energy without entropy =      170.36521063  energy(sigma->0) =      170.36419364

[...]

 eigenvalue-minimisations  :  6720
 total energy-change (2. order) :-0.1880914E+03  (-0.1841250E+03)
 number of electron      32.0000000 magnetization       8.0000000
 augmentation part       32.0000000 magnetization       8.0000000

[...]

 Broyden mixing:
  rms(total) = 0.95835E+00    rms(broyden)= 0.95834E+00
  rms(prec ) = 0.12635E+01
  weight for this iteration     100.00

[...]

 eigenvalues of (default mixing * dielectric matrix)
  average eigenvalue GAMMA=   0.8816
  0.8816

[...]

 average (electrostatic) potential at core
  the test charge radii are     1.1212  0.9406
  (the norm of the test charge is              1.0000)
       1 -40.8726       2 -40.8726       3 -40.8726       4 -40.8726       5 -93.2099
       6 -93.2099       7 -93.2099       8 -93.2099

 E-fermi :  -0.1614     XC(G=0):  -8.0545     alpha+bet : -8.4721

 spin component 1

 k-point   1 :       0.0000    0.0000    0.0000
  band No.  band energies     occupation
      1     -13.1000      1.00000
      2     -12.6918      1.00000
      3     -12.6918      1.00000
      4     -12.6918      1.00000
      5      -2.1365      1.00000
      6      -2.1365      1.00000
      7      -2.1365      1.00000
      8      -1.0209      1.00000
      9      -1.0209      1.00000
     10      -1.0209      1.00000
     11      -1.0209      1.00000
     12      -1.0209      1.00000
     13      -1.0209      1.00000
     14      -0.3962      1.00000
     15      -0.3962      1.00000
     16      -0.3962      1.00000
     17       4.7835      0.00000
     18       7.1852      0.00000
     19       7.1852      0.00000
     20       7.1852      0.00000
     21       7.6641      0.00000
     22       7.6641      0.00000
     23       7.6641      0.00000
     24      10.7453      0.00000
     25      10.7453      0.00000
     26      10.7453      0.00000
     27      11.0358      0.00000
     28      11.0358      0.00000
     29      11.0358      0.00000
     30      12.9327      0.00000
     31      12.9327      0.00000
     32      14.3105      0.00000

[...]

 soft charge-density along one line, spin component           1
         0         1         2         3         4         5         6         7         8         9
 total charge-density along one line

[...]

------------------------ aborting loop because EDIFF is reached ----------------------------------------

 total charge

# of ion     s       p       d       tot
  1        0.044   0.035   0.000   0.079
  2        0.044   0.035   0.000   0.079
  3        0.044   0.035   0.000   0.079
  4        0.044   0.035   0.000   0.079
  5        1.588   3.590   0.000   5.177
  6        1.588   3.590   0.000   5.177
  7        1.588   3.590   0.000   5.177
  8        1.588   3.590   0.000   5.177
tot        6.525  14.501   0.000  21.026

 magnetization (x)

[...]

  FORCE on cell =-STRESS in cart. coord.  units (eV):
  Direction    XX          YY          ZZ          XY          YZ          ZX
  Alpha Z     8.64093     8.64093     8.64093
  Ewald    -419.13592  -419.13592  -419.13592    -0.00000     0.00000     0.00000
  Hartree   130.98048   130.98048   130.98048    -0.00000    -0.00000    -0.00000
  E(xc)    -114.64115  -114.64115  -114.64115    -0.00000     0.00000     0.00000
  Local    -342.88662  -342.88662  -342.88662     0.00000    -0.00000    -0.00000
  n-local   337.48717   338.32688   338.58260    -0.40277    -0.37377    -0.23759
  augment   -77.32111   -77.32111   -77.32111     0.00000     0.00000     0.00000
  Kinetic   473.88184   477.80698   479.33711    -1.12559    -1.09028    -0.67906
  Fock        0.00000     0.00000     0.00000     0.00000     0.00000     0.00000
  Total       0.77748     0.77748     0.77748     0.00000    -0.00000     0.00000
  in kB       7.09313     7.09313     7.09313     0.00000    -0.00000     0.00000

 VOLUME and BASIS-vectors are now :
  energy-cutoff  :      500.00
  volume of cell :      175.62
      direct lattice vectors                 reciprocal lattice vectors
     5.600000000  0.000000000  0.000000000     0.178571429  0.000000000  0.000000000
     0.000000000  5.600000000  0.000000000     0.000000000  0.178571429  0.000000000
     0.000000000  0.000000000  5.600000000     0.000000000  0.000000000  0.178571429

[...]

 FORCES acting on ions
    electron-ion (+dipol)            ewald-force                    non-local-force                 convergence-correction
   0.177E-14 -.157E-17 0.333E-15   0.578E-15 -.727E-16 0.399E-15   0.000E+00 0.000E+00 -.258E-25   -.195E-15 -.309E-15 0.695E-15
   0.118E-14 -.961E-15 -.131E-14   0.574E-15 0.221E-15 0.689E-15   0.808E-27 0.388E-25 0.000E+00   -.232E-15 0.289E-15 -.759E-15
   0.641E-15 0.503E-14 -.161E-12   0.101E-14 -.531E-16 0.689E-15   0.129E-25 0.323E-26 0.000E+00   0.222E-15 -.331E-15 -.874E-15
   -.312E-15 0.244E-12 -.609E-12   0.101E-14 0.240E-15 0.356E-15   0.000E+00 0.129E-25 0.355E-25   0.200E-15 0.299E-15 0.663E-15
   0.147E-14 0.442E-15 0.187E-13   -.153E-14 -.881E-15 0.229E-14   0.181E-24 0.000E+00 0.000E+00   0.471E-15 -.212E-14 -.161E-13
   0.131E-14 0.186E-13 0.803E-15   -.161E-14 0.114E-14 -.139E-14   0.000E+00 -.207E-24 -.517E-24   0.250E-14 0.967E-14 0.140E-13
   0.175E-13 0.116E-14 -.437E-11   0.146E-15 -.121E-14 -.141E-14   -.258E-24 -.620E-24 -.310E-24   0.114E-13 -.324E-14 0.247E-13
   0.195E-13 0.125E-11 -.222E-11   0.634E-16 0.807E-15 -.737E-15   -.414E-24 0.414E-24 -.310E-24   0.142E-13 0.121E-13 -.134E-13
   0.430E-13 0.151E-11 -.734E-11   0.246E-15 0.186E-15 0.892E-15   -.477E-24 -.359E-24 -.113E-23   0.286E-13 0.163E-13 0.902E-14

 POSITION                                       TOTAL-FORCE (eV/Angst)
      0.00000      0.00000      0.00000         0.000000      0.000000      0.000000
      0.00000      2.80000      2.80000         0.000000     -0.000000      0.000000
      2.80000      0.00000      2.80000        -0.000000     -0.000000      0.000000
      2.80000      2.80000      0.00000         0.000000      0.000000      0.000000
      0.00000      0.00000      2.80000        -0.000000      0.000000      0.000000
      0.00000      2.80000      0.00000         0.000000      0.000000     -0.000000
      2.80000      0.00000      0.00000        -0.000000     -0.000000     -0.000000
      2.80000      2.80000      2.80000         0.000000      0.000000      0.000000
    total drift:                                0.000000      0.000000     -0.000000

  FREE ENERGIE OF THE ION-ELECTRON SYSTEM (eV)
  free  energy   TOTEN  =       -27.24675697 eV

  energy  without entropy=      -27.24675697  energy(sigma->0) =      -27.24675697

[...]

 d Force = 0.0000000E+00[ 0.000E+00, 0.000E+00]  d Energy = 0.7989071E-02-0.799E-02
 d Force = 0.0000000E+00[ 0.000E+00, 0.000E+00]  d Ewald  =-0.5867826E+01 0.587E+01

 Steepest descent step on ions:
 trial-energy change:   -0.007989  1 .order   -0.008005   -0.010936   -0.005073
  (g-gl).g = 0.109E-01      g.g   = 0.109E-01  gl.gl    = 0.000E+00
 g(Force)  = 0.507E-59   g(Stress)= 0.109E-01 ortho     = 0.000E+00
 gamma     =   0.00000
 trial     =   1.00000
 opt step  =   1.86546  (harmonic =   1.86546) maximal distance =0.00000000
 next E    =   -27.256957   (d E  =  -0.01020)

 FEWALD executed in parallel

[...]

 eigenvalue-minimisations  :  5248
 total energy-change (2. order) : 0.1779874E-04  (-0.4172595E-05)
 number of electron      32.0000003 magnetization       0.0000000
 augmentation part       -3.7390092 magnetization       0.0000002

 Broyden mixing:
  rms(total) = 0.90254E-03    rms(broyden)= 0.90251E-03
  rms(prec ) = 0.99967E-03
  weight for this iteration     100.00

 eigenvalues of (default mixing * dielectric matrix)
  average eigenvalue GAMMA=   1.5346
  2.6043  1.3562  1.3562  0.8216

[...]

----------------------------------------- Iteration    3(   6)  ---------------------------------------

 eigenvalue-minimisations  :  2944
 total energy-change (2. order) :-0.1616429E-05  (-0.5046831E-07)
 number of electron      32.0000003 magnetization       0.0000000
 augmentation part       -3.7390092 magnetization       0.0000002

 Free energy of the ion-electron system (eV)
  alpha Z        PSCENC =         8.41811658
  Ewald energy   TEWEN  =     -1246.50456453
  -1/2 Hartree   DENC   =      -399.63018606
  -exchange  EXHF       =         0.00000000
  -V(xc)+E(xc)   XCENC  =       -61.90838115
  PAW double counting   =      2006.36741428    -1857.70532091
  entropy T*S    EENTRO =        -0.00000000
  eigenvalues    EBANDS =      -135.81798179
  atomic energy  EATOM  =      1659.52381812
  free energy    TOTEN  =       -27.25708547 eV

  energy without entropy =      -27.25708547  energy(sigma->0) =      -27.25708547

 average (electrostatic) potential at core
  the test charge radii are     1.1212  0.9406
  (the norm of the test charge is              1.0000)
       1 -41.0807       2 -41.0807       3 -41.0807       4 -41.0807       5 -93.3502
       6 -93.3502       7 -93.3502       8 -93.3502

 E-fermi :  -0.3011     XC(G=0):  -7.9474     alpha+bet : -8.2537

[...]

 spin component 2

[...]

 k-point  35 :       0.5000    0.5000    0.5000
  band No.  band energies     occupation
      1     -12.8943      1.00000
      2     -12.8943      1.00000
      3     -12.8943      1.00000
      4     -12.8943      1.00000
      5      -2.4619      1.00000
      6      -2.4619      1.00000
      7      -2.4619      1.00000
      8      -2.4619      1.00000
      9      -0.8106      1.00000
     10      -0.8106      1.00000
     11      -0.8106      1.00000
     12      -0.8106      1.00000
     13      -0.8106      1.00000
     14      -0.8106      1.00000
     15      -0.8106      1.00000
     16      -0.8106      1.00000
     17       6.7012      0.00000
     18       6.7012      0.00000
     19       6.7012      0.00000
     20       6.7012      0.00000
     21      10.0197      0.00000
     22      10.0197      0.00000
     23      10.0197      0.00000
     24      10.0197      0.00000
     25      10.3489      0.00000
     26      10.3489      0.00000
     27      10.3489      0.00000
     28      10.3489      0.00000
     29      10.3489      0.00000
     30      10.3489      0.00000
     31      10.3489      0.00000
     32      10.3489      0.00000

[...]

 soft charge-density along one line, spin component           2
         0         1         2         3         4         5         6         7         8         9
 total charge-density along one line

------------------------ aborting loop because EDIFF is reached ----------------------------------------

[...]

  FORCE on cell =-STRESS in cart. coord.  units (eV):
  Direction    XX          YY          ZZ          XY          YZ          ZX
  Alpha Z     8.41812     8.41812     8.41812
  Ewald    -415.50186  -415.50186  -415.50186    -0.00000     0.00000     0.00000
  Hartree   133.20792   133.20792   133.20792    -0.00000    -0.00000    -0.00000
  E(xc)    -114.42032  -114.42032  -114.42032     0.00000    -0.00000     0.00000
  Local    -348.18256  -348.18256  -348.18256     0.00000    -0.00000    -0.00000
  n-local   336.90835   337.73470   337.99793    -0.38413    -0.35498    -0.22616
  augment   -77.36119   -77.36119   -77.36119     0.00000     0.00000     0.00000
  Kinetic   473.26410   477.07860   478.59563    -1.07840    -1.04034    -0.64948
  Fock        0.00000     0.00000     0.00000     0.00000     0.00000     0.00000
  Total       0.01987     0.01987     0.01987    -0.00000     0.00000    -0.00000
  in kB       0.17664     0.17664     0.17664    -0.00000     0.00000    -0.00000

 VOLUME and BASIS-vectors are now :
  energy-cutoff  :      500.00
  volume of cell :      180.26
      direct lattice vectors                 reciprocal lattice vectors
     5.648978721  0.000000000  0.000000000     0.177023149 -0.000000000  0.000000000
     0.000000000  5.648978721  0.000000000    -0.000000000  0.177023149  0.000000000
    -0.000000000 -0.000000000  5.648978721    -0.000000000 -0.000000000  0.177023149

  length of vectors
     5.648978721  5.648978721  5.648978721     0.177023149  0.177023149  0.177023149

 FORCES acting on ions
    electron-ion (+dipol)            ewald-force                    non-local-force                 convergence-correction
   0.214E-14 0.116E-14 0.977E-15   -.767E-16 -.587E-15 -.899E-16   -.389E-25 -.388E-25 0.388E-25   0.777E-16 -.774E-16 -.131E-15
   0.227E-14 -.893E-15 -.407E-15   -.801E-16 -.198E-15 0.234E-15   -.291E-25 0.129E-25 -.420E-25   0.619E-16 0.102E-15 0.169E-19
   -.720E-16 0.546E-14 -.159E-12   0.204E-15 -.566E-15 0.233E-15   0.131E-25 -.258E-25 0.000E+00   -.260E-16 -.106E-15 -.265E-18
   0.167E-14 0.241E-12 -.610E-12   0.201E-15 -.177E-15 -.557E-16   -.646E-25 -.449E-30 0.590E-25   -.340E-16 0.644E-16 -.124E-15
   0.161E-15 0.121E-14 0.174E-13   -.434E-14 0.296E-15 0.839E-15   0.814E-24 0.620E-24 0.000E+00   0.816E-14 0.681E-14 0.104E-13
   0.178E-15 0.180E-13 0.117E-14   -.440E-14 -.129E-14 -.972E-15   0.414E-24 0.336E-24 0.000E+00   0.873E-14 0.111E-13 0.657E-14
   0.163E-13 0.217E-14 -.440E-11   0.453E-14 0.176E-14 -.982E-15   0.345E-27 0.253E-27 0.000E+00   0.442E-14 0.940E-14 0.656E-14
   0.169E-13 0.125E-11 -.222E-11   0.447E-14 0.168E-15 0.148E-14   0.207E-24 -.841E-24 -.491E-24   0.582E-14 0.127E-13 0.860E-14
   0.396E-13 0.152E-11 -.736E-11   0.503E-15 -.600E-15 0.684E-15   0.132E-23 0.642E-25 -.435E-24   0.272E-13 0.400E-13 0.318E-13

 POSITION                                       TOTAL-FORCE (eV/Angst)
      0.00000      0.00000      0.00000        -0.000000      0.000000     -0.000000
      0.00000      2.82449      2.82449         0.000000     -0.000000     -0.000000
      2.82449      0.00000      2.82449         0.000000      0.000000     -0.000000
      2.82449      2.82449      0.00000        -0.000000      0.000000     -0.000000
     -0.00000     -0.00000      2.82449        -0.000000      0.000000      0.000000
      0.00000      2.82449      0.00000         0.000000     -0.000000      0.000000
      2.82449      0.00000      0.00000         0.000000     -0.000000      0.000000
      2.82449      2.82449      2.82449        -0.000000      0.000000      0.000000
    total drift:                                0.000000      0.000000     -0.000000

  FREE ENERGIE OF THE ION-ELECTRON SYSTEM (eV)
  free  energy   TOTEN  =       -27.25708547 eV

  energy  without entropy=      -27.25708547  energy(sigma->0) =      -27.25708547

 d Force = 0.0000000E+00[ 0.000E+00, 0.000E+00]  d Energy = 0.2339422E-02-0.234E-02
 d Force = 0.0000000E+00[ 0.000E+00, 0.000E+00]  d Ewald  =-0.5034353E+01 0.503E+01

 reached required accuracy - stopping structural energy minimisation
 writing wavefunctions

 total charge

[...]

 magnetization (x)

# of ion     s       p       d       tot
  1       -0.000  -0.000   0.000  -0.000
  2       -0.000  -0.000   0.000  -0.000
  3       -0.000  -0.000   0.000  -0.000
  4       -0.000  -0.000   0.000  -0.000
  5        0.000   0.000   0.000   0.000
  6        0.000   0.000   0.000   0.000
  7        0.000   0.000   0.000   0.000
  8        0.000   0.000   0.000   0.000
tot       -0.000   0.000   0.000   0.000