 vasp.5.3.3 18Dez12 (build Jun 24 2015 15:58:02) complex

 executed on             LinuxIFC date 2023.04.24  08:41:39

 INCAR:
 POTCAR:    PAW Ca_sv_GW 31Mar2010
 POTCAR:    PAW_PBE F 08Apr2002

 POTCAR:    PAW Ca_sv_GW 31Mar2010
   VRHFIN =Ca: 2sp6s2d0.01

   TITEL  = PAW Ca_sv_GW 31Mar2010
   POMASS =   40.078; ZVAL   =   10.000    mass and valenz
   ENMAX  =  281.430; ENMIN  =  211.072 eV

 POTCAR:    PAW_PBE F 08Apr2002
   VRHFIN =F: s2p5

   TITEL  = PAW_PBE F 08Apr2002
   POMASS =   18.998; ZVAL   =    7.000    mass and valenz
   ENMAX  =  400.000; ENMIN  =  300.000 eV

  PAW Ca_sv_GW 31Mar2010                :
  PAW_PBE F 08Apr2002                   :

 POSCAR: Ca4 F8
  positions in direct lattice
 exchange correlation table for  LEXCH =        8
   RHO(1)=    0.500       N(1)  =     2000
   RHO(2)=  100.500       N(2)  =     4000

 ion  position               nearest neighbor table
   1  0.000  0.000  0.000-   5 2.39   6 2.39  11 2.39  12 2.39   9 2.39  10 2.39   7 2.39   8 2.39

   2  0.000  0.500  0.500-   7 2.39   8 2.39   9 2.39  10 2.39   5 2.39   6 2.39  11 2.39  12 2.39

[...]

   5  0.250  0.750  0.250-   1 2.39   4 2.39   3 2.39   2 2.39
   6  0.250  0.750  0.750-   1 2.39   4 2.39   3 2.39   2 2.39
   7  0.250  0.250  0.750-   2 2.39   3 2.39   1 2.39   4 2.39
   8  0.250  0.250  0.250-   2 2.39   3 2.39   1 2.39   4 2.39
   9  0.750  0.750  0.750-   2 2.39   3 2.39   1 2.39   4 2.39
  10  0.750  0.750  0.250-   2 2.39   3 2.39   1 2.39   4 2.39
  11  0.750  0.250  0.250-   1 2.39   4 2.39   3 2.39   2 2.39
  12  0.750  0.250  0.750-   1 2.39   4 2.39   3 2.39   2 2.39

  LATTYP: Found a simple cubic cell.
 ALAT       =     5.5160519363

  Lattice vectors:

 A1 = (   5.5160519363,   0.0000000000,   0.0000000000)
 A2 = (   0.0000000000,   5.5160519363,   0.0000000000)
 A3 = (   0.0000000000,   0.0000000000,   5.5160519363)

Analysis of symmetry for initial positions (statically):
 Subroutine PRICEL returns following result:

  LATTYP: Found a face centered cubic cell.
 ALAT       =     5.5160519363

[...]

   4 primitive cells build up your supercell.

 Routine SETGRP: Setting up the symmetry group for a
 simple cubic supercell.

 Subroutine GETGRP returns: Found 48 space group operations
 (whereof 48 operations were pure point group operations)
 out of a pool of 48 trial point group operations.

The static configuration has the point symmetry O_h .

Analysis of symmetry for dynamics (positions and initial velocities):
 Subroutine PRICEL returns following result:

  LATTYP: Found a face centered cubic cell.
 ALAT       =     5.5160519363

  Lattice vectors:

 A1 = (   2.7580259682,   2.7580259682,   0.0000000000)
 A2 = (   2.7580259682,   0.0000000000,  -2.7580259682)
 A3 = (   0.0000000000,   2.7580259682,  -2.7580259682)

   4 primitive cells build up your supercell.

 Routine SETGRP: Setting up the symmetry group for a
 simple cubic supercell.

 Subroutine GETGRP returns: Found 48 space group operations
 (whereof 48 operations were pure point group operations)
 out of a pool of 48 trial point group operations.

The dynamic configuration has the point symmetry O_h .

Analysis of magnetic symmetry:

 Subroutine MAGSYM returns: Found 48 space group operations
 (whereof 48 operations were pure point group operations)
 out of a pool of 48 trial space group operations
 (whereof 48 operations were pure point group operations)
 and found also     4 'primitive' translations

The magnetic configuration has the point symmetry O_h .

 irot  :   1
 isymop:   1   0   0
           0   1   0
           0   0   1

 gtrans:     0.0000000     0.0000000     0.0000000

 ptrans:     0.0000000     0.0000000     0.0000000
 rotmap:
 (   1->   1)  (   2->   2)  (   3->   3)  (   4->   4)  (   5->   5)
 (   6->   6)  (   7->   7)  (   8->   8)  (   9->   9)  (  10->  10)
 (  11->  11)  (  12->  12)

[...]

 irot  :  48
 isymop:   0   0   1
           0   1   0
           1   0   0

 gtrans:     0.0000000     0.0000000     0.0000000

[...]

 ptrans:     0.0000000     0.5000000     0.5000000
 rotmap:
 (   1->   2)  (   2->   3)  (   3->   4)  (   4->   1)  (   5->   7)
 (   6->  12)  (   7->   9)  (   8->   6)  (   9->  11)  (  10->   8)
 (  11->   5)  (  12->  10)

 KPOINTS: Automatic mesh

Automatic generation of k-mesh.
Space group operators:
 irot       det(A)        alpha          n_x          n_y          n_z        tau_x        tau_y        tau_z
    1     1.000000     0.000000     1.000000     0.000000     0.000000     0.000000     0.000000     0.000000
    2    -1.000000     0.000000     1.000000     0.000000     0.000000     0.000000     0.000000     0.000000
    3     1.000000   120.000000    -0.577350    -0.577350    -0.577350     0.000000     0.000000     0.000000
    4    -1.000000   120.000000    -0.577350    -0.577350    -0.577350     0.000000     0.000000     0.000000
    5     1.000000   120.000000     0.577350     0.577350     0.577350     0.000000     0.000000     0.000000
    6    -1.000000   120.000000     0.577350     0.577350     0.577350     0.000000     0.000000     0.000000
    7     1.000000    90.000000     0.000000     0.000000    -1.000000     0.000000     0.000000     0.000000
    8    -1.000000    90.000000     0.000000     0.000000    -1.000000     0.000000     0.000000     0.000000
    9     1.000000   180.000000     0.000000    -0.707107    -0.707107     0.000000     0.000000     0.000000
   10    -1.000000   180.000000     0.000000    -0.707107    -0.707107     0.000000     0.000000     0.000000
   11     1.000000    90.000000     0.000000     1.000000     0.000000     0.000000     0.000000     0.000000
   12    -1.000000    90.000000     0.000000     1.000000     0.000000     0.000000     0.000000     0.000000
   13     1.000000   180.000000    -0.000000    -0.000000     1.000000     0.000000     0.000000     0.000000
   14    -1.000000   180.000000    -0.000000    -0.000000     1.000000     0.000000     0.000000     0.000000
   15     1.000000   120.000000    -0.577350     0.577350     0.577350     0.000000     0.000000     0.000000
   16    -1.000000   120.000000    -0.577350     0.577350     0.577350     0.000000     0.000000     0.000000
   17     1.000000   120.000000    -0.577350     0.577350    -0.577350     0.000000     0.000000     0.000000
   18    -1.000000   120.000000    -0.577350     0.577350    -0.577350     0.000000     0.000000     0.000000
   19     1.000000    90.000000    -0.000000    -0.000000     1.000000     0.000000     0.000000     0.000000
   20    -1.000000    90.000000    -0.000000    -0.000000     1.000000     0.000000     0.000000     0.000000
   21     1.000000    90.000000    -1.000000     0.000000    -0.000000     0.000000     0.000000     0.000000
   22    -1.000000    90.000000    -1.000000     0.000000    -0.000000     0.000000     0.000000     0.000000
   23     1.000000   180.000000    -0.707107     0.000000    -0.707107     0.000000     0.000000     0.000000
   24    -1.000000   180.000000    -0.707107     0.000000    -0.707107     0.000000     0.000000     0.000000
   25     1.000000   120.000000     0.577350    -0.577350     0.577350     0.000000     0.000000     0.000000
   26    -1.000000   120.000000     0.577350    -0.577350     0.577350     0.000000     0.000000     0.000000
   27     1.000000   120.000000    -0.577350    -0.577350     0.577350     0.000000     0.000000     0.000000
   28    -1.000000   120.000000    -0.577350    -0.577350     0.577350     0.000000     0.000000     0.000000
   29     1.000000   180.000000     1.000000    -0.000000     0.000000     0.000000     0.000000     0.000000
   30    -1.000000   180.000000     1.000000    -0.000000     0.000000     0.000000     0.000000     0.000000
   31     1.000000    90.000000    -0.000000    -1.000000     0.000000     0.000000     0.000000     0.000000
   32    -1.000000    90.000000    -0.000000    -1.000000     0.000000     0.000000     0.000000     0.000000
   33     1.000000   180.000000     0.707107     0.707107     0.000000     0.000000     0.000000     0.000000
   34    -1.000000   180.000000     0.707107     0.707107     0.000000     0.000000     0.000000     0.000000
   35     1.000000    90.000000     1.000000    -0.000000    -0.000000     0.000000     0.000000     0.000000
   36    -1.000000    90.000000     1.000000    -0.000000    -0.000000     0.000000     0.000000     0.000000
   37     1.000000   120.000000     0.577350    -0.577350    -0.577350     0.000000     0.000000     0.000000
   38    -1.000000   120.000000     0.577350    -0.577350    -0.577350     0.000000     0.000000     0.000000
   39     1.000000   180.000000     0.000000     1.000000     0.000000     0.000000     0.000000     0.000000
   40    -1.000000   180.000000     0.000000     1.000000     0.000000     0.000000     0.000000     0.000000
   41     1.000000   120.000000     0.577350     0.577350    -0.577350     0.000000     0.000000     0.000000
   42    -1.000000   120.000000     0.577350     0.577350    -0.577350     0.000000     0.000000     0.000000
   43     1.000000   180.000000    -0.000000    -0.707107     0.707107     0.000000     0.000000     0.000000
   44    -1.000000   180.000000    -0.000000    -0.707107     0.707107     0.000000     0.000000     0.000000
   45     1.000000   180.000000     0.707107    -0.707107     0.000000     0.000000     0.000000     0.000000
   46    -1.000000   180.000000     0.707107    -0.707107     0.000000     0.000000     0.000000     0.000000
   47     1.000000   180.000000     0.707107    -0.000000    -0.707107     0.000000     0.000000     0.000000
   48    -1.000000   180.000000     0.707107    -0.000000    -0.707107     0.000000     0.000000     0.000000

 Subroutine IBZKPT returns following result:

 Found     35 irreducible k-points:

 Following reciprocal coordinates:
            Coordinates               Weight
  0.000000  0.000000  0.000000      1.000000
  0.125000  0.000000  0.000000      6.000000
  0.250000  0.000000  0.000000      6.000000
  0.375000 -0.000000  0.000000      6.000000
  0.500000  0.000000  0.000000      3.000000
  0.125000  0.125000  0.000000     12.000000
  0.250000  0.125000  0.000000     24.000000
  0.375000  0.125000  0.000000     24.000000
  0.500000  0.125000  0.000000     12.000000
  0.250000  0.250000  0.000000     12.000000
  0.375000  0.250000  0.000000     24.000000
  0.500000  0.250000  0.000000     12.000000
  0.375000  0.375000  0.000000     12.000000
  0.500000  0.375000  0.000000     12.000000
  0.500000  0.500000  0.000000      3.000000
  0.125000  0.125000  0.125000      8.000000
  0.250000  0.125000  0.125000     24.000000
  0.375000  0.125000  0.125000     24.000000
  0.500000  0.125000  0.125000     12.000000
  0.250000  0.250000  0.125000     24.000000
  0.375000  0.250000  0.125000     48.000000
  0.500000  0.250000  0.125000     24.000000
  0.375000  0.375000  0.125000     24.000000
  0.500000  0.375000  0.125000     24.000000
  0.500000  0.500000  0.125000      6.000000
  0.250000  0.250000  0.250000      8.000000
  0.375000  0.250000  0.250000     24.000000
  0.500000  0.250000  0.250000     12.000000
  0.375000  0.375000  0.250000     24.000000
[...]
     45       0.1269      1.00000
     46       0.3789      1.00000
     47       0.3789      1.00000
     48       0.3789      1.00000
     49       7.4924      0.00000
     50       8.4127      0.00000
     51       8.4127      0.00000
     52       8.4127      0.00000
     53       9.4256      0.00000
     54       9.4256      0.00000
     55       9.7221      0.00000
     56       9.7221      0.00000
     57       9.7221      0.00000
     58      10.2939      0.00000
     59      10.2939      0.00000
     60      10.2939      0.00000
     61      11.0395      0.00000
     62      11.0398      0.00000
     63      11.0403      0.00000
     64      11.0405      0.00000

[...]

 soft charge-density along one line, spin component           1
         0         1         2         3         4         5         6         7         8         9
 total charge-density along one line

[...]

------------------------ aborting loop because EDIFF is reached ----------------------------------------

 total charge

# of ion     s       p       d       tot
  1        2.131   5.930   0.225   8.285
  2        2.131   5.930   0.225   8.285
  3        2.131   5.930   0.225   8.285
  4        2.131   5.930   0.225   8.285
  5        1.735   4.384   0.000   6.119
  6        1.735   4.384   0.000   6.119
  7        1.735   4.384   0.000   6.119
  8        1.735   4.384   0.000   6.119
  9        1.735   4.384   0.000   6.119
 10        1.735   4.384   0.000   6.119
 11        1.735   4.384   0.000   6.119
 12        1.735   4.384   0.000   6.119
tot       22.407  58.791   0.899  82.097

 magnetization (x)

[...]

  FORCE on cell =-STRESS in cart. coord.  units (eV):
  Direction    XX          YY          ZZ          XY          YZ          ZX
  Alpha Z   256.63251   256.63251   256.63251
  Ewald   -2156.53970 -2156.53970 -2156.53970    -0.00000     0.00000     0.00000
  Hartree   860.17935   860.17935   860.17935    -0.00000    -0.00000    -0.00000
  E(xc)    -501.77359  -501.77359  -501.77359     0.00000     0.00000     0.00000
  Local    -651.16144  -651.16144  -651.16144     0.00000     0.00000     0.00000
  n-local   -93.81297   -94.46773   -95.04432     0.01199    -0.00279     0.00412
  augment   147.38480   147.38480   147.38480     0.00000    -0.00000     0.00000
  Kinetic  2134.28952  2138.63343  2142.98744    -0.20411    -0.05654    -0.08017
  Fock        0.00000     0.00000     0.00000     0.00000     0.00000     0.00000
  Total      -1.08294    -1.08294    -1.08294    -0.00000    -0.00000    -0.00000
  in kB     -10.33783   -10.33783   -10.33783    -0.00000    -0.00000    -0.00000

 VOLUME and BASIS-vectors are now :
  energy-cutoff  :      500.00
  volume of cell :      167.84
      direct lattice vectors                 reciprocal lattice vectors
     5.516051936  0.000000000  0.000000000     0.181289083 -0.000000000  0.000000000
     0.000000000  5.516051936  0.000000000     0.000000000  0.181289083  0.000000000
     0.000000000  0.000000000  5.516051936    -0.000000000 -0.000000000  0.181289083

[...]

 FORCES acting on ions
    electron-ion (+dipol)            ewald-force                    non-local-force                 convergence-correction
   -.171E-14 -.647E-14 -.252E-13   0.853E-13 0.568E-13 0.142E-13   0.404E-23 -.331E-23 0.000E+00   0.189E-13 0.106E-14 -.119E-12
   -.174E-14 0.266E-12 0.246E-12   0.171E-12 0.568E-13 0.142E-13   -.131E-22 -.232E-22 0.662E-23   0.400E-13 0.894E-13 -.337E-13
   0.260E-12 -.678E-14 -.305E-11   0.171E-12 0.568E-13 0.142E-13   -.140E-23 -.662E-23 0.662E-23   0.810E-13 0.143E-14 -.365E-13
   0.260E-12 -.676E-13 -.368E-11   0.142E-12 0.568E-13 0.142E-13   -.771E-23 -.993E-23 0.165E-23   0.916E-13 0.857E-13 -.114E-12
   0.978E-13 0.655E-12 -.327E-12   -.404E-13 -.252E-13 0.839E-13   0.350E-18 -.915E-19 0.149E-18   -.321E-13 0.425E-13 0.294E-13
   0.154E-13 0.229E-12 0.307E-12   -.402E-13 -.252E-13 -.965E-13   -.241E-18 0.176E-18 0.949E-19   0.103E-12 -.564E-13 -.122E-13
   0.956E-13 0.145E-11 0.219E-12   -.404E-13 -.305E-13 0.864E-13   0.113E-18 -.339E-19 -.983E-19   -.263E-13 0.795E-13 0.382E-13
   0.132E-13 0.176E-11 0.139E-13   -.402E-13 -.306E-13 -.102E-12   0.265E-20 0.678E-20 -.251E-18   0.112E-12 -.171E-13 -.704E-13
   0.277E-12 0.418E-11 0.584E-11   -.734E-13 -.259E-13 0.872E-13   0.412E-20 0.203E-18 -.339E-20   -.105E-12 0.424E-13 0.113E-12
   0.195E-12 -.191E-11 0.314E-11   -.732E-13 -.260E-13 -.101E-12   -.323E-18 -.745E-19 -.305E-18   0.542E-13 -.515E-13 -.301E-13
   0.278E-12 0.259E-11 0.425E-11   -.734E-13 -.312E-13 0.819E-13   0.174E-18 0.125E-18 0.474E-19   -.100E-12 0.727E-13 0.269E-13
   0.196E-12 0.162E-11 -.392E-12   -.732E-13 -.313E-13 -.985E-13   -.404E-18 -.136E-19 -.129E-18   0.592E-13 -.211E-13 0.594E-14
   0.169E-11 0.107E-10 0.655E-11   0.114E-12 0.140E-14 -.164E-14   -.325E-18 0.298E-18 -.495E-18   0.296E-12 0.269E-12 -.204E-12

 POSITION                                       TOTAL-FORCE (eV/Angst)
      0.00000      0.00000      0.00000        -0.000000     -0.000000     -0.000000
      0.00000      2.75803      2.75803        -0.000000     -0.000000     -0.000000
      2.75803      0.00000      2.75803        -0.000000     -0.000000     -0.000000
      2.75803      2.75803      0.00000        -0.000000     -0.000000     -0.000000
      1.37901      4.13704      1.37901         0.000000      0.000000      0.000000
      1.37901      4.13704      4.13704        -0.000000     -0.000000     -0.000000
      1.37901      1.37901      4.13704         0.000000      0.000000      0.000000
      1.37901      1.37901      1.37901        -0.000000     -0.000000     -0.000000
      4.13704      4.13704      4.13704         0.000000     -0.000000      0.000000
      4.13704      4.13704      1.37901        -0.000000     -0.000000     -0.000000
      4.13704      1.37901      1.37901         0.000000      0.000000      0.000000
      4.13704      1.37901      4.13704        -0.000000     -0.000000     -0.000000
    total drift:                                0.000000      0.000000      0.000000

  FREE ENERGIE OF THE ION-ELECTRON SYSTEM (eV)
  free  energy   TOTEN  =       -89.19687281 eV

  energy  without entropy=      -89.19687281  energy(sigma->0) =      -89.19687281

 FEWALD executed in parallel

[...]

 eigenvalue-minimisations  : 13184
 total energy-change (2. order) :-0.4496546E-03  (-0.1806559E-03)
 number of electron      96.0000021 magnetization       0.0000002
 augmentation part       10.4301845 magnetization      -0.0000305

[...]

 Broyden mixing:
  rms(total) = 0.12424E-02    rms(broyden)= 0.12373E-02
  rms(prec ) = 0.14835E-02
  weight for this iteration     100.00

 eigenvalues of (default mixing * dielectric matrix)
  average eigenvalue GAMMA=   1.5228
  2.7826  1.7977  1.2679  1.0323  0.7333

[...]

----------------------------------------- Iteration    2(   7)  ---------------------------------------

 eigenvalue-minimisations  : 10528
 total energy-change (2. order) : 0.9087833E-05  (-0.2875350E-05)
 number of electron      96.0000021 magnetization      -0.0000001
 augmentation part       10.4265004 magnetization       0.0000017

 Free energy of the ion-electron system (eV)
  alpha Z        PSCENC =       260.01377474
  Ewald energy   TEWEN  =     -6497.89258764
  -1/2 Hartree   DENC   =     -2565.13711688
  -exchange  EXHF       =         0.00000000
  -V(xc)+E(xc)   XCENC  =       474.98242492
  PAW double counting   =      8553.90013776    -8574.72965437
  entropy T*S    EENTRO =        -0.00000000
  eigenvalues    EBANDS =     -1021.62153253
  atomic energy  EATOM  =      9281.28100554
  free energy    TOTEN  =       -89.20354846 eV

  energy without entropy =      -89.20354846  energy(sigma->0) =      -89.20354846

 average (electrostatic) potential at core
  the test charge radii are     1.0447  0.7167
  (the norm of the test charge is              1.0000)
       1 -95.0014       2 -95.0014       3 -95.0014       4 -95.0014       5 -75.3908
       6 -75.3908       7 -75.3908       8 -75.3908       9 -75.3908      10 -75.3908
      11 -75.3908      12 -75.3908

 E-fermi :   0.8526     XC(G=0):  -9.5396     alpha+bet :-15.1115

[...]

 spin component 2

[...]

 k-point  35 :       0.5000    0.5000    0.5000
  band No.  band energies     occupation
      1     -35.6183      1.00000
      2     -35.6183      1.00000
      3     -35.6183      1.00000
      4     -35.6183      1.00000
      5     -19.5441      1.00000
      6     -19.5441      1.00000
      7     -19.5441      1.00000
      8     -19.5441      1.00000
      9     -19.0866      1.00000
     10     -19.0866      1.00000
     11     -19.0866      1.00000
     12     -19.0866      1.00000
     13     -16.6254      1.00000
     14     -16.6254      1.00000
     15     -16.6254      1.00000
     16     -16.6254      1.00000
     17     -16.6254      1.00000
     18     -16.6254      1.00000
     19     -16.6254      1.00000
     20     -16.6254      1.00000
     21     -16.1078      1.00000
     22     -16.1078      1.00000
     23     -16.1078      1.00000
     24     -16.1078      1.00000
     25      -1.0026      1.00000
     26      -1.0026      1.00000
     27      -1.0026      1.00000
     28      -1.0026      1.00000
     29      -1.0026      1.00000
     30      -1.0026      1.00000
     31      -1.0026      1.00000
     32      -1.0026      1.00000
     33      -0.7998      1.00000
     34      -0.7998      1.00000
     35      -0.7998      1.00000
     36      -0.7998      1.00000
     37      -0.7531      1.00000
     38      -0.7531      1.00000
     39      -0.7531      1.00000
     40      -0.7531      1.00000
     41      -0.3601      1.00000
     42      -0.3601      1.00000
     43      -0.3601      1.00000
     44      -0.3601      1.00000
     45      -0.3601      1.00000
     46      -0.3601      1.00000
     47      -0.3601      1.00000
     48      -0.3601      1.00000
     49       9.7730      0.00000
     50       9.7730      0.00000
     51       9.7730      0.00000
     52       9.7730      0.00000
     53       9.7730      0.00000
     54       9.7730      0.00000
     55       9.7730      0.00000
     56       9.7730      0.00000
     57      10.1033      0.00000
     58      10.1033      0.00000
     59      10.1033      0.00000
     60      10.1033      0.00000
     61      11.1098      0.00000
     62      11.1098      0.00000
     63      11.1098      0.00000
     64      11.1098      0.00000

[...]

 soft charge-density along one line, spin component           2
         0         1         2         3         4         5         6         7         8         9
 total charge-density along one line

------------------------ aborting loop because EDIFF is reached ----------------------------------------

[...]

  FORCE on cell =-STRESS in cart. coord.  units (eV):
  Direction    XX          YY          ZZ          XY          YZ          ZX
  Alpha Z   260.01377   260.01377   260.01377
  Ewald   -2165.96958 -2165.96958 -2165.96958    -0.00000    -0.00000    -0.00000
  Hartree   855.03202   855.03202   855.03202    -0.00000    -0.00000    -0.00000
  E(xc)    -501.99109  -501.99109  -501.99109    -0.00000     0.00000     0.00000
  Local    -639.85196  -639.85196  -639.85196     0.00000    -0.00000     0.00000
  n-local   -93.89576   -94.55311   -95.13074     0.01177    -0.00394     0.00351
  augment   147.44251   147.44251   147.44251     0.00000    -0.00000     0.00000
  Kinetic  2135.48282  2139.88027  2144.29597    -0.20809    -0.05579    -0.08122
  Fock        0.00000     0.00000     0.00000     0.00000     0.00000     0.00000
  Total       0.03548     0.03548     0.03548     0.00000     0.00000     0.00000
  in kB       0.34313     0.34313     0.34313     0.00000     0.00000     0.00000

 VOLUME and BASIS-vectors are now :
  energy-cutoff  :      500.00
  volume of cell :      165.65
      direct lattice vectors                 reciprocal lattice vectors
     5.492036969 -0.000000000  0.000000000     0.182081804 -0.000000000  0.000000000
     0.000000000  5.492036969  0.000000000     0.000000000  0.182081804  0.000000000
    -0.000000000 -0.000000000  5.492036969    -0.000000000 -0.000000000  0.182081804

  length of vectors
     5.492036969  5.492036969  5.492036969     0.182081804  0.182081804  0.182081804

 FORCES acting on ions
    electron-ion (+dipol)            ewald-force                    non-local-force                 convergence-correction
   -.154E-13 -.272E-14 -.204E-13   0.213E-12 0.853E-13 0.142E-13   0.819E-23 0.149E-22 0.662E-23   0.966E-13 0.291E-13 -.115E-12
   -.153E-13 0.261E-12 0.234E-12   0.185E-12 0.568E-13 0.142E-13   0.102E-22 0.331E-22 -.199E-22   0.107E-12 0.102E-12 -.442E-13
   0.272E-12 -.253E-14 -.308E-11   0.199E-12 0.711E-13 0.142E-13   0.418E-22 0.663E-23 -.662E-23   0.496E-13 0.278E-13 -.461E-13
   0.272E-12 -.874E-13 -.367E-11   0.227E-12 0.114E-12 0.142E-13   0.190E-22 0.331E-22 -.830E-23   0.380E-13 0.922E-13 -.123E-12
   0.149E-12 0.658E-12 -.336E-12   0.395E-14 0.466E-13 0.872E-13   0.153E-18 -.376E-18 0.745E-19   0.136E-12 -.666E-13 0.315E-13
   0.248E-13 0.243E-12 0.330E-12   -.195E-12 -.110E-12 -.983E-13   0.172E-18 -.152E-18 0.508E-19   -.523E-14 0.600E-13 0.114E-13
   0.148E-12 0.145E-11 0.211E-12   0.447E-14 0.401E-13 0.898E-13   0.370E-18 -.146E-18 0.220E-18   0.145E-12 -.501E-13 -.516E-13
   0.236E-13 0.177E-11 0.367E-13   -.195E-12 -.116E-12 -.104E-12   0.152E-18 -.285E-18 -.440E-19   -.655E-14 0.754E-13 0.275E-13
   0.283E-12 0.418E-11 0.582E-11   -.188E-13 0.453E-13 0.898E-13   0.370E-18 -.349E-18 0.112E-18   0.458E-13 -.526E-13 0.184E-13
   0.159E-12 -.190E-11 0.318E-11   -.189E-12 -.111E-12 -.104E-12   0.433E-19 -.102E-18 -.112E-18   -.101E-12 0.804E-13 0.920E-13
   0.282E-12 0.261E-11 0.425E-11   -.183E-13 0.389E-13 0.845E-13   0.262E-18 -.200E-18 -.163E-18   0.518E-13 -.426E-13 0.240E-13
   0.158E-12 0.164E-11 -.368E-12   -.189E-12 -.118E-12 -.101E-12   0.606E-18 -.712E-19 -.305E-19   -.105E-12 0.885E-13 0.840E-14
   0.174E-11 0.108E-10 0.659E-11   0.276E-13 0.431E-13 0.168E-14   0.213E-17 -.168E-17 0.108E-18   0.452E-12 0.343E-12 -.167E-12

 POSITION                                       TOTAL-FORCE (eV/Angst)
     -0.00000     -0.00000     -0.00000         0.000000      0.000000     -0.000000
      0.00000      2.74602      2.74602         0.000000     -0.000000      0.000000
      2.74602     -0.00000      2.74602         0.000000     -0.000000      0.000000
      2.74602      2.74602      0.00000        -0.000000     -0.000000      0.000000
      1.37301      4.11903      1.37301        -0.000000      0.000000      0.000000
      1.37301      4.11903      4.11903        -0.000000      0.000000     -0.000000
      1.37301      1.37301      4.11903        -0.000000     -0.000000      0.000000
      1.37301      1.37301      1.37301        -0.000000      0.000000     -0.000000
      4.11903      4.11903      4.11903         0.000000      0.000000      0.000000
      4.11903      4.11903      1.37301        -0.000000      0.000000     -0.000000
      4.11903      1.37301      1.37301         0.000000      0.000000      0.000000
      4.11903      1.37301      4.11903        -0.000000     -0.000000     -0.000000
    total drift:                                0.000000      0.000000      0.000000

  FREE ENERGIE OF THE ION-ELECTRON SYSTEM (eV)
  free  energy   TOTEN  =       -89.20354846 eV

  energy  without entropy=      -89.20354846  energy(sigma->0) =      -89.20354846

 d Force = 0.0000000E+00[ 0.000E+00, 0.000E+00]  d Energy = 0.6675658E-02-0.668E-02
 d Force = 0.0000000E+00[ 0.000E+00, 0.000E+00]  d Ewald  = 0.2828956E+02-0.283E+02

 Steepest descent step on ions:
 trial-energy change:   -0.006676  1 .order   -0.006840   -0.014144    0.000463
  (g-gl).g = 0.141E-01      g.g   = 0.141E-01  gl.gl    = 0.000E+00
 g(Force)  = 0.160E-56   g(Stress)= 0.141E-01 ortho     = 0.000E+00
 gamma     =   0.00000
 trial     =   1.00000
 opt step  =   0.96606  (harmonic =   0.96828) maximal distance =0.00000000
 next E    =   -89.203556   (d E  =  -0.00668)

 reached required accuracy - stopping structural energy minimisation
 writing wavefunctions

 total charge

[...]

 magnetization (x)

# of ion     s       p       d       tot
  1        0.000   0.000  -0.000   0.000
  2        0.000   0.000  -0.000   0.000
  3        0.000   0.000  -0.000   0.000
  4        0.000   0.000  -0.000   0.000
  5       -0.000  -0.000   0.000  -0.000
  6       -0.000  -0.000   0.000  -0.000
  7       -0.000  -0.000   0.000  -0.000
  8       -0.000  -0.000   0.000  -0.000
  9       -0.000  -0.000   0.000  -0.000
 10       -0.000  -0.000   0.000  -0.000
 11       -0.000  -0.000   0.000  -0.000
 12       -0.000  -0.000   0.000  -0.000
tot       -0.000  -0.000  -0.000  -0.000