 vasp.5.3.3 18Dez12 (build Jun 24 2015 15:58:02) complex

 executed on             LinuxIFC date 2023.04.24  07:38:45

 INCAR:
 POTCAR:    PAW_PBE Zn 06Sep2000
 POTCAR:    PAW_PBE S 06Sep2000

 POTCAR:    PAW_PBE Zn 06Sep2000
   VRHFIN =Zn: d10 p2

   TITEL  = PAW_PBE Zn 06Sep2000
   POMASS =   65.390; ZVAL   =   12.000    mass and valenz
   ENMAX  =  276.723; ENMIN  =  207.542 eV

 POTCAR:    PAW_PBE S 06Sep2000
   VRHFIN =S : s2p4

   TITEL  = PAW_PBE S 06Sep2000
   POMASS =   32.066; ZVAL   =    6.000    mass and valenz
   ENMAX  =  258.689; ENMIN  =  194.016 eV

  PAW_PBE Zn 06Sep2000                  :
  PAW_PBE S 06Sep2000                   :

 POSCAR: Zn4 S4
  positions in direct lattice
 exchange correlation table for  LEXCH =        8
   RHO(1)=    0.500       N(1)  =     2000
   RHO(2)=  100.500       N(2)  =     4000

 ion  position               nearest neighbor table
   1  0.000  0.000  0.000-   5 2.33   7 2.33   8 2.33   6 2.33
   2  0.000  0.500  0.500-   6 2.33   7 2.33   8 2.33   5 2.33
   3  0.500  0.000  0.500-   5 2.33   6 2.33   7 2.33   8 2.33
   4  0.500  0.500  0.000-   5 2.33   6 2.33   8 2.33   7 2.33
   5  0.250  0.750  0.750-   1 2.33   3 2.33   4 2.33   2 2.33
   6  0.250  0.250  0.250-   2 2.33   3 2.33   4 2.33   1 2.33
   7  0.750  0.750  0.250-   1 2.33   2 2.33   3 2.33   4 2.33
   8  0.750  0.250  0.750-   1 2.33   2 2.33   4 2.33   3 2.33

  LATTYP: Found a simple cubic cell.
 ALAT       =     5.3873657546

  Lattice vectors:

 A1 = (   5.3873657546,   0.0000000000,   0.0000000000)
 A2 = (   0.0000000000,   5.3873657546,   0.0000000000)
 A3 = (   0.0000000000,   0.0000000000,   5.3873657546)

Analysis of symmetry for initial positions (statically):
 Subroutine PRICEL returns following result:

  LATTYP: Found a face centered cubic cell.
 ALAT       =     5.3873657546

[...]

   4 primitive cells build up your supercell.

 Routine SETGRP: Setting up the symmetry group for a
 simple cubic supercell.

 Subroutine GETGRP returns: Found 24 space group operations
 (whereof 24 operations were pure point group operations)
 out of a pool of 48 trial point group operations.

The static configuration has the point symmetry T_d .

Analysis of symmetry for dynamics (positions and initial velocities):
 Subroutine PRICEL returns following result:

  LATTYP: Found a face centered cubic cell.
 ALAT       =     5.3873657546

  Lattice vectors:

 A1 = (   2.6936828773,   2.6936828773,   0.0000000000)
 A2 = (   2.6936828773,   0.0000000000,  -2.6936828773)
 A3 = (   0.0000000000,   2.6936828773,  -2.6936828773)

   4 primitive cells build up your supercell.

 Routine SETGRP: Setting up the symmetry group for a
 simple cubic supercell.

 Subroutine GETGRP returns: Found 24 space group operations
 (whereof 24 operations were pure point group operations)
 out of a pool of 48 trial point group operations.

The dynamic configuration has the point symmetry T_d .

Analysis of magnetic symmetry:

 Subroutine MAGSYM returns: Found 24 space group operations
 (whereof 24 operations were pure point group operations)
 out of a pool of 24 trial space group operations
 (whereof 24 operations were pure point group operations)
 and found also     4 'primitive' translations

The magnetic configuration has the point symmetry T_d .

 irot  :   1
 isymop:   1   0   0
           0   1   0
           0   0   1

 gtrans:     0.0000000     0.0000000     0.0000000

 ptrans:     0.0000000     0.0000000     0.0000000
 rotmap:
 (   1->   1)  (   2->   2)  (   3->   3)  (   4->   4)  (   5->   5)
 (   6->   6)  (   7->   7)  (   8->   8)

[...]

 irot  :  24
 isymop:   0   0   1
           0   1   0
           1   0   0

 gtrans:     0.0000000     0.0000000     0.0000000

[...]

 ptrans:     0.0000000     0.5000000     0.5000000
 rotmap:
 (   1->   2)  (   2->   3)  (   3->   4)  (   4->   1)  (   5->   8)
 (   6->   5)  (   7->   6)  (   8->   7)

 KPOINTS: Automatic mesh

Automatic generation of k-mesh.
Space group operators:
 irot       det(A)        alpha          n_x          n_y          n_z        tau_x        tau_y        tau_z
    1     1.000000     0.000000     1.000000     0.000000     0.000000     0.000000     0.000000     0.000000
    2     1.000000   120.000000    -0.577350    -0.577350    -0.577350     0.000000     0.000000     0.000000
    3     1.000000   120.000000     0.577350     0.577350     0.577350     0.000000     0.000000     0.000000
    4    -1.000000    90.000000     0.000000     0.000000    -1.000000     0.000000     0.000000     0.000000
    5    -1.000000   180.000000     0.000000    -0.707107    -0.707107     0.000000     0.000000     0.000000
    6    -1.000000    90.000000     0.000000     1.000000     0.000000     0.000000     0.000000     0.000000
    7     1.000000   180.000000    -0.000000    -0.000000     1.000000     0.000000     0.000000     0.000000
    8     1.000000   120.000000    -0.577350     0.577350     0.577350     0.000000     0.000000     0.000000
    9     1.000000   120.000000    -0.577350     0.577350    -0.577350     0.000000     0.000000     0.000000
   10    -1.000000    90.000000    -0.000000    -0.000000     1.000000     0.000000     0.000000     0.000000
   11    -1.000000    90.000000    -1.000000     0.000000    -0.000000     0.000000     0.000000     0.000000
   12    -1.000000   180.000000    -0.707107     0.000000    -0.707107     0.000000     0.000000     0.000000
   13     1.000000   120.000000     0.577350    -0.577350     0.577350     0.000000     0.000000     0.000000
   14     1.000000   120.000000    -0.577350    -0.577350     0.577350     0.000000     0.000000     0.000000
   15     1.000000   180.000000     1.000000    -0.000000     0.000000     0.000000     0.000000     0.000000
   16    -1.000000    90.000000    -0.000000    -1.000000     0.000000     0.000000     0.000000     0.000000
   17    -1.000000   180.000000     0.707107     0.707107     0.000000     0.000000     0.000000     0.000000
   18    -1.000000    90.000000     1.000000    -0.000000    -0.000000     0.000000     0.000000     0.000000
   19     1.000000   120.000000     0.577350    -0.577350    -0.577350     0.000000     0.000000     0.000000
   20     1.000000   180.000000     0.000000     1.000000     0.000000     0.000000     0.000000     0.000000
   21     1.000000   120.000000     0.577350     0.577350    -0.577350     0.000000     0.000000     0.000000
   22    -1.000000   180.000000    -0.000000    -0.707107     0.707107     0.000000     0.000000     0.000000
   23    -1.000000   180.000000     0.707107    -0.707107     0.000000     0.000000     0.000000     0.000000
   24    -1.000000   180.000000     0.707107    -0.000000    -0.707107     0.000000     0.000000     0.000000

 Subroutine IBZKPT returns following result:

 Found     35 irreducible k-points:

 Following reciprocal coordinates:
            Coordinates               Weight
  0.000000  0.000000  0.000000      1.000000
  0.125000  0.000000  0.000000      6.000000
  0.250000  0.000000  0.000000      6.000000
  0.375000  0.000000  0.000000      6.000000
  0.500000  0.000000  0.000000      3.000000
  0.125000  0.125000  0.000000     12.000000
  0.250000  0.125000  0.000000     24.000000
  0.375000  0.125000  0.000000     24.000000
  0.500000  0.125000  0.000000     12.000000
  0.250000  0.250000  0.000000     12.000000
  0.375000  0.250000  0.000000     24.000000
  0.500000  0.250000  0.000000     12.000000
  0.375000  0.375000  0.000000     12.000000
  0.500000  0.375000  0.000000     12.000000
  0.500000  0.500000  0.000000      3.000000
  0.125000  0.125000  0.125000      8.000000
  0.250000  0.125000  0.125000     24.000000
  0.375000  0.125000  0.125000     24.000000
  0.500000  0.125000  0.125000     12.000000
  0.250000  0.250000  0.125000     24.000000
  0.375000  0.250000  0.125000     48.000000
  0.500000  0.250000  0.125000     24.000000
  0.375000  0.375000  0.125000     24.000000
  0.500000  0.375000  0.125000     24.000000
  0.500000  0.500000  0.125000      6.000000
  0.250000  0.250000  0.250000      8.000000
  0.375000  0.250000  0.250000     24.000000
  0.500000  0.250000  0.250000     12.000000
  0.375000  0.375000  0.250000     24.000000
  0.500000  0.375000  0.250000     24.000000
  0.500000  0.500000  0.250000      6.000000
  0.375000  0.375000  0.375000      8.000000
  0.500000  0.375000  0.375000     12.000000
  0.500000  0.500000  0.375000      6.000000
  0.500000  0.500000  0.500000      1.000000

 Following cartesian coordinates:
            Coordinates               Weight
  0.000000  0.000000  0.000000      1.000000
  0.023202 -0.000000  0.000000      6.000000
  0.046405 -0.000000  0.000000      6.000000
  0.069607 -0.000000  0.000000      6.000000
  0.092810 -0.000000  0.000000      3.000000
  0.023202  0.023202  0.000000     12.000000
  0.046405  0.023202  0.000000     24.000000
  0.069607  0.023202  0.000000     24.000000
  0.092810  0.023202  0.000000     12.000000
  0.046405  0.046405  0.000000     12.000000
  0.069607  0.046405  0.000000     24.000000
  0.092810  0.046405  0.000000     12.000000
  0.069607  0.069607  0.000000     12.000000
  0.092810  0.069607  0.000000     12.000000
  0.092810  0.092810  0.000000      3.000000
  0.023202  0.023202  0.023202      8.000000
  0.046405  0.023202  0.023202     24.000000
  0.069607  0.023202  0.023202     24.000000
  0.092810  0.023202  0.023202     12.000000
  0.046405  0.046405  0.023202     24.000000
  0.069607  0.046405  0.023202     48.000000
  0.092810  0.046405  0.023202     24.000000
  0.069607  0.069607  0.023202     24.000000
  0.092810  0.069607  0.023202     24.000000
  0.092810  0.092810  0.023202      6.000000
  0.046405  0.046405  0.046405      8.000000
  0.069607  0.046405  0.046405     24.000000
  0.092810  0.046405  0.046405     12.000000
  0.069607  0.069607  0.046405     24.000000
  0.092810  0.069607  0.046405     24.000000
  0.092810  0.092810  0.046405      6.000000
  0.069607  0.069607  0.069607      8.000000
  0.092810  0.069607  0.069607     12.000000
  0.092810  0.092810  0.069607      6.000000
  0.092810  0.092810  0.092810      1.000000

 I would recommend the setting:
   dimension x,y,z NGX =    39 NGY =   39 NGZ =   39
 SYSTEM =  ZnS (relax)
 POSCAR =  Zn4 S4

 Startparameter for this run:
   NWRITE =      2    write-flag & timer
   PREC   = accura    normal or accurate (medium, high low for compatibility)
   ISTART =      0    job   : 0-new  1-cont  2-samecut
   ICHARG =      2    charge: 1-file 2-atom 10-const
   ISPIN  =      2    spin polarized calculation?
   LNONCOLLINEAR =      F non collinear calculations
   LSORBIT =      F    spin-orbit coupling
   INIWAV =      1    electr: 0-lowe 1-rand  2-diag
   LASPH  =      T    aspherical Exc in radial PAW
   METAGGA=      F    non-selfconsistent MetaGGA calc.

 Electronic Relaxation 1
   ENCUT  =  500.0 eV  36.75 Ry    6.06 a.u.   9.82  9.82  9.82*2*pi/ulx,y,z
   ENINI  =  500.0     initial cutoff
   ENAUG  =  575.9 eV  augmentation charge cutoff
   NELM   =    100;   NELMIN=  2; NELMDL= -5     # of ELM steps
   EDIFF  = 0.1E-04   stopping-criterion for ELM
   LREAL  =      F    real-space projection
[...]
  the test charge radii are     0.9521  0.9698
  (the norm of the test charge is              1.0000)
       1 -36.1930       2 -36.1930       3 -36.1930       4 -36.1930       5 -88.5129
       6 -88.5129       7 -88.5129       8 -88.5129

 E-fermi :   2.5390     XC(G=0):  -9.6741     alpha+bet : -8.1319

 spin component 1

 k-point   1 :       0.0000    0.0000    0.0000
  band No.  band energies     occupation
      1     -11.0122      1.00000
      2      -9.7502      1.00000
      3      -9.7502      1.00000
      4      -9.7502      1.00000
      5      -4.2180      1.00000
      6      -4.2180      1.00000
      7      -4.2180      1.00000
      8      -4.1828      1.00000
      9      -4.1828      1.00000
     10      -4.1828      1.00000
     11      -3.8325      1.00000
     12      -3.8325      1.00000
     13      -3.8325      1.00000
     14      -3.8325      1.00000
     15      -3.8325      1.00000
     16      -3.8325      1.00000
     17      -3.6735      1.00000
     18      -3.6735      1.00000
     19      -3.5962      1.00000
     20      -3.5962      1.00000
     21      -3.5962      1.00000
     22      -3.4539      1.00000
     23      -3.4539      1.00000
     24      -3.4539      1.00000
     25      -2.4010      1.00000
     26      -2.4010      1.00000
     27      -2.4010      1.00000
     28      -0.0597      1.00000
     29      -0.0597      1.00000
     30      -0.0597      1.00000
     31      -0.0597      1.00000
     32      -0.0597      1.00000
     33      -0.0597      1.00000
     34       2.1931      1.00000
     35       2.1931      1.00000
     36       2.1931      1.00000
     37       4.3480      0.00000
     38       5.5790      0.00000
     39       5.5790      0.00000
     40       5.5790      0.00000
     41       6.2672      0.00000
     42       6.2672      0.00000
     43       6.2672      0.00000
     44       8.5836      0.00000
     45       8.5836      0.00000
     46       8.5836      0.00000
     47      13.2377      0.00000
     48      13.2377      0.00000
     49      13.2377      0.00000
     50      13.9671      0.00000
     51      13.9671      0.00000
     52      14.1162      0.00000
     53      14.2260      0.00000
     54      14.2260      0.00000
     55      14.2260      0.00000
     56      14.2260      0.00000
     57      14.2260      0.00000
     58      14.2260      0.00000
     59      15.9232      0.00000
     60      15.9232      0.00000
     61      15.9232      0.00000
     62      16.7669      0.00000
     63      16.7669      0.00000
     64      16.7669      0.00000

[...]

 soft charge-density along one line, spin component           1
         0         1         2         3         4         5         6         7         8         9
 total charge-density along one line

[...]

------------------------ aborting loop because EDIFF is reached ----------------------------------------

 total charge

# of ion     s       p       d       tot
  1        0.522   0.484   9.801  10.807
  2        0.522   0.484   9.801  10.807
  3        0.522   0.484   9.801  10.807
  4        0.522   0.484   9.801  10.807
  5        1.315   2.442   0.000   3.757
  6        1.315   2.442   0.000   3.757
  7        1.315   2.442   0.000   3.757
  8        1.315   2.442   0.000   3.757
tot        7.347  11.704  39.203  58.255

 magnetization (x)

[...]

  FORCE on cell =-STRESS in cart. coord.  units (eV):
  Direction    XX          YY          ZZ          XY          YZ          ZX
  Alpha Z   289.27844   289.27844   289.27844
  Ewald   -1676.35142 -1676.35142 -1676.35142    -0.00000    -0.00000    -0.00000
  Hartree   909.02504   909.02504   909.02504    -0.00000    -0.00000    -0.00000
  E(xc)    -374.43704  -374.43704  -374.43704    -0.00000     0.00000     0.00000
  Local      -6.16674    -6.16674    -6.16674    -0.00000    -0.00000    -0.00000
  n-local   159.34249   161.56186   159.50661    -1.68630    -1.47278    -0.91404
  augment    93.31746    93.31746    93.31746     0.00000    -0.00000    -0.00000
  Kinetic   602.07952   610.73850   610.02131    -3.15004    -3.34867    -1.89837
  Fock        0.00000     0.00000     0.00000     0.00000     0.00000     0.00000
  Total       2.41583     2.41583     2.41583     0.00000     0.00000    -0.00000
  in kB      24.75415    24.75415    24.75415     0.00000     0.00000    -0.00000

 VOLUME and BASIS-vectors are now :
  energy-cutoff  :      500.00
  volume of cell :      156.36
      direct lattice vectors                 reciprocal lattice vectors
     5.387365755  0.000000000  0.000000000     0.185619474 -0.000000000  0.000000000
     0.000000000  5.387365755  0.000000000     0.000000000  0.185619474  0.000000000
     0.000000000  0.000000000  5.387365755    -0.000000000 -0.000000000  0.185619474

[...]

 FORCES acting on ions
    electron-ion (+dipol)            ewald-force                    non-local-force                 convergence-correction
   0.117E-13 0.137E-12 -.262E-12   0.853E-13 0.426E-13 0.426E-13   0.663E-17 0.152E-17 -.347E-17   0.424E-14 -.338E-13 -.285E-12
   0.133E-13 -.736E-13 -.429E-12   0.853E-13 0.568E-13 0.426E-13   -.103E-16 -.134E-16 -.217E-17   0.157E-13 0.238E-12 -.596E-13
   -.126E-12 0.138E-12 -.525E-11   0.853E-13 0.284E-13 0.426E-13   -.112E-16 -.434E-18 0.651E-17   0.185E-12 -.298E-14 -.168E-13
   -.110E-12 0.167E-12 -.636E-11   0.853E-13 0.426E-13 0.426E-13   0.663E-17 0.108E-17 -.520E-17   0.204E-12 0.274E-12 -.236E-12
   -.197E-12 0.381E-12 -.259E-13   -.861E-13 -.421E-13 -.416E-13   -.113E-16 0.694E-17 0.867E-17   0.149E-13 -.317E-13 0.424E-14
   -.197E-12 0.230E-12 -.924E-13   -.860E-13 -.417E-13 -.434E-13   -.609E-17 -.182E-16 0.104E-16   0.122E-13 0.492E-14 0.984E-15
   -.145E-12 -.147E-13 -.138E-11   -.847E-13 -.434E-13 -.434E-13   0.321E-16 -.434E-17 0.382E-16   0.249E-13 -.391E-13 -.100E-13
   -.611E-13 -.171E-11 0.320E-12   -.846E-13 -.430E-13 -.421E-13   0.234E-16 -.781E-16 -.520E-17   0.256E-13 -.328E-14 0.456E-14
   -.811E-12 -.747E-12 -.135E-10   -.451E-15 0.381E-15 0.928E-16   0.299E-16 -.105E-15 0.477E-16   0.487E-12 0.406E-12 -.599E-12

 POSITION                                       TOTAL-FORCE (eV/Angst)
      0.00000      0.00000      0.00000         0.000000      0.000000     -0.000000
      0.00000      2.69368      2.69368         0.000000      0.000000     -0.000000
      2.69368      0.00000      2.69368        -0.000000      0.000000      0.000000
      2.69368      2.69368      0.00000        -0.000000      0.000000     -0.000000
      1.34684      4.04052      4.04052        -0.000000     -0.000000     -0.000000
      1.34684      1.34684      1.34684         0.000000     -0.000000      0.000000
      4.04052      4.04052      1.34684        -0.000000     -0.000000      0.000000
      4.04052      1.34684      4.04052        -0.000000     -0.000000      0.000000
    total drift:                               -0.000000     -0.000000     -0.000000

  FREE ENERGIE OF THE ION-ELECTRON SYSTEM (eV)
  free  energy   TOTEN  =       -27.36965825 eV

  energy  without entropy=      -27.36965825  energy(sigma->0) =      -27.36965825

[...]

 d Force = 0.0000000E+00[ 0.000E+00, 0.000E+00]  d Energy = 0.3519133E-01-0.352E-01
 d Force = 0.0000000E+00[ 0.000E+00, 0.000E+00]  d Ewald  =-0.7221251E+02 0.722E+02

 Steepest descent step on ions:
 trial-energy change:   -0.035191  1 .order   -0.037060   -0.105584    0.031463
  (g-gl).g = 0.106E+00      g.g   = 0.106E+00  gl.gl    = 0.000E+00
 g(Force)  = 0.137E-56   g(Stress)= 0.106E+00 ortho     = 0.000E+00
 gamma     =   0.00000
 trial     =   1.00000
 opt step  =   0.75530  (harmonic =   0.77042) maximal distance =0.00000000
 next E    =   -27.408726   (d E  =  -0.03907)

 FEWALD executed in parallel

[...]

 eigenvalue-minimisations  : 11456
 total energy-change (2. order) :-0.8949492E-01  (-0.9382977E-01)
 number of electron      71.9999952 magnetization       0.0000000
 augmentation part       28.7887210 magnetization      -0.0000008

[...]

 Broyden mixing:
  rms(total) = 0.16136E-02    rms(broyden)= 0.16136E-02
  rms(prec ) = 0.17655E-02
  weight for this iteration     100.00

 eigenvalues of (default mixing * dielectric matrix)
  average eigenvalue GAMMA=   1.6116
  2.4975  2.1235  0.9658  1.0161  1.4552

[...]

----------------------------------------- Iteration    3(   7)  ---------------------------------------

 eigenvalue-minimisations  :  5056
 total energy-change (2. order) : 0.1368133E-05  (-0.4301615E-06)
 number of electron      71.9999952 magnetization      -0.0000000
 augmentation part       28.9179358 magnetization       0.0000002

 Free energy of the ion-electron system (eV)
  alpha Z        PSCENC =       279.93565950
  Ewald energy   TEWEN  =     -4974.31250110
  -1/2 Hartree   DENC   =     -2759.03921726
  -exchange  EXHF       =         0.00000000
  -V(xc)+E(xc)   XCENC  =       277.84211396
  PAW double counting   =      8574.46859301    -9274.20551047
  entropy T*S    EENTRO =        -0.00000000
  eigenvalues    EBANDS =      -254.70832246
  atomic energy  EATOM  =      8102.61046434
  free energy    TOTEN  =       -27.40872049 eV

  energy without entropy =      -27.40872049  energy(sigma->0) =      -27.40872049

 average (electrostatic) potential at core
  the test charge radii are     0.9521  0.9698
  (the norm of the test charge is              1.0000)
       1 -36.4191       2 -36.4191       3 -36.4191       4 -36.4191       5 -88.7436
       6 -88.7436       7 -88.7436       8 -88.7436

 E-fermi :   2.1855     XC(G=0):  -9.5193     alpha+bet : -7.8692

[...]

 spin component 2

[...]

 k-point  35 :       0.5000    0.5000    0.5000
  band No.  band energies     occupation
      1     -10.2051      1.00000
      2     -10.2051      1.00000
      3     -10.2051      1.00000
      4     -10.2051      1.00000
      5      -4.2486      1.00000
      6      -4.2486      1.00000
      7      -4.2486      1.00000
      8      -4.2486      1.00000
      9      -4.2486      1.00000
     10      -4.2486      1.00000
     11      -4.2486      1.00000
     12      -4.2486      1.00000
     13      -3.8589      1.00000
     14      -3.8589      1.00000
     15      -3.8589      1.00000
     16      -3.8589      1.00000
     17      -3.8589      1.00000
     18      -3.8589      1.00000
     19      -3.8589      1.00000
     20      -3.8589      1.00000
     21      -3.6926      1.00000
     22      -3.6926      1.00000
     23      -3.6926      1.00000
     24      -3.6926      1.00000
     25      -3.2477      1.00000
     26      -3.2477      1.00000
     27      -3.2477      1.00000
     28      -3.2477      1.00000
     29       1.0574      1.00000
     30       1.0574      1.00000
     31       1.0574      1.00000
     32       1.0574      1.00000
     33       1.0574      1.00000
     34       1.0574      1.00000
     35       1.0574      1.00000
     36       1.0574      1.00000
     37       5.1532      0.00000
     38       5.1532      0.00000
     39       5.1532      0.00000
     40       5.1532      0.00000
     41       8.8287      0.00000
     42       8.8287      0.00000
     43       8.8287      0.00000
     44       8.8287      0.00000
     45       8.8287      0.00000
     46       8.8287      0.00000
     47       8.8287      0.00000
     48       8.8287      0.00000
     49      10.6769      0.00000
     50      10.6769      0.00000
     51      10.6769      0.00000
     52      10.6769      0.00000
     53      13.9538      0.00000
     54      13.9538      0.00000
     55      13.9538      0.00000
     56      13.9538      0.00000
     57      15.2361      0.00000
     58      15.2361      0.00000
     59      15.2361      0.00000
     60      15.2361      0.00000
     61      15.2361      0.00000
     62      15.2361      0.00000
     63      15.2361      0.00000
     64      15.2361      0.00000

[...]

 soft charge-density along one line, spin component           2
         0         1         2         3         4         5         6         7         8         9
 total charge-density along one line

------------------------ aborting loop because EDIFF is reached ----------------------------------------

[...]

  FORCE on cell =-STRESS in cart. coord.  units (eV):
  Direction    XX          YY          ZZ          XY          YZ          ZX
  Alpha Z   279.93566   279.93566   279.93566
  Ewald   -1658.10663 -1658.10663 -1658.10663     0.00000    -0.00000    -0.00000
  Hartree   919.68301   919.68301   919.68301    -0.00000    -0.00000    -0.00000
  E(xc)    -374.00524  -374.00524  -374.00524    -0.00000     0.00000     0.00000
  Local     -24.04682   -24.04682   -24.04682    -0.00000    -0.00000     0.00000
  n-local   157.61779   159.85642   157.89126    -1.65514    -1.44091    -0.89765
  augment    92.77640    92.77640    92.77640    -0.00000    -0.00000    -0.00000
  Kinetic   599.91385   608.43085   607.65546    -3.14258    -3.29739    -1.88546
  Fock        0.00000     0.00000     0.00000     0.00000     0.00000     0.00000
  Total       0.02492     0.02492     0.02492     0.00000     0.00000     0.00000
  in kB       0.24713     0.24713     0.24713     0.00000     0.00000     0.00000

 VOLUME and BASIS-vectors are now :
  energy-cutoff  :      500.00
  volume of cell :      161.58
      direct lattice vectors                 reciprocal lattice vectors
     5.446645042  0.000000000  0.000000000     0.183599260 -0.000000000 -0.000000000
     0.000000000  5.446645042  0.000000000    -0.000000000  0.183599260 -0.000000000
     0.000000000  0.000000000  5.446645042    -0.000000000 -0.000000000  0.183599260

  length of vectors
     5.446645042  5.446645042  5.446645042     0.183599260  0.183599260  0.183599260

 FORCES acting on ions
    electron-ion (+dipol)            ewald-force                    non-local-force                 convergence-correction
   0.450E-13 0.933E-13 -.204E-12   0.128E-12 0.568E-13 0.426E-13   -.133E-16 -.369E-17 -.520E-17   0.713E-13 0.779E-13 -.335E-12
   0.440E-13 -.103E-12 -.319E-12   0.128E-12 0.568E-13 0.426E-13   0.489E-17 -.586E-17 0.694E-17   0.678E-13 0.289E-12 -.165E-12
   0.447E-13 0.109E-12 -.506E-11   0.995E-13 0.568E-13 0.426E-13   -.205E-17 -.124E-16 0.208E-16   0.207E-12 0.273E-13 -.171E-12
   0.866E-13 0.197E-12 -.630E-11   0.995E-13 0.568E-13 0.426E-13   0.749E-17 0.163E-16 -.121E-16   0.188E-12 0.270E-12 -.321E-12
   0.305E-13 0.422E-12 -.256E-13   -.128E-12 -.556E-13 -.420E-13   0.432E-17 0.468E-16 -.867E-17   -.503E-13 -.800E-13 -.164E-13
   0.294E-13 0.232E-12 -.596E-13   -.128E-12 -.568E-13 -.435E-13   -.442E-16 0.512E-16 0.173E-17   -.498E-13 0.236E-13 -.424E-13
   0.681E-13 0.637E-13 -.132E-11   -.990E-13 -.568E-13 -.434E-13   0.251E-16 -.182E-16 0.191E-16   0.216E-13 -.772E-13 -.399E-13
   0.110E-12 -.166E-11 0.308E-12   -.991E-13 -.581E-13 -.420E-13   0.737E-16 -.139E-16 -.867E-17   0.234E-13 0.243E-13 -.128E-13
   0.459E-12 -.649E-12 -.130E-10   0.248E-15 0.101E-15 -.254E-15   0.559E-16 0.603E-16 0.139E-16   0.479E-12 0.554E-12 -.110E-11

 POSITION                                       TOTAL-FORCE (eV/Angst)
      0.00000      0.00000     -0.00000        -0.000000      0.000000     -0.000000
      0.00000      2.72332      2.72332         0.000000      0.000000     -0.000000
      2.72332      0.00000      2.72332        -0.000000     -0.000000     -0.000000
      2.72332      2.72332      0.00000         0.000000     -0.000000     -0.000000
      1.36166      4.08498      4.08498        -0.000000     -0.000000      0.000000
      1.36166      1.36166      1.36166        -0.000000      0.000000      0.000000
      4.08498      4.08498      1.36166         0.000000      0.000000      0.000000
      4.08498      1.36166      4.08498        -0.000000      0.000000      0.000000
    total drift:                                0.000000     -0.000000     -0.000000

  FREE ENERGIE OF THE ION-ELECTRON SYSTEM (eV)
  free  energy   TOTEN  =       -27.40872049 eV

  energy  without entropy=      -27.40872049  energy(sigma->0) =      -27.40872049

 d Force = 0.0000000E+00[ 0.000E+00, 0.000E+00]  d Energy = 0.3870917E-02-0.387E-02
 d Force = 0.0000000E+00[ 0.000E+00, 0.000E+00]  d Ewald  = 0.1747821E+02-0.175E+02

 reached required accuracy - stopping structural energy minimisation
 writing wavefunctions

 total charge

[...]

 magnetization (x)

# of ion     s       p       d       tot
  1       -0.000  -0.000  -0.000  -0.000
  2       -0.000  -0.000  -0.000  -0.000
  3       -0.000  -0.000  -0.000  -0.000
  4       -0.000  -0.000  -0.000  -0.000
  5       -0.000   0.000   0.000  -0.000
  6        0.000   0.000   0.000   0.000
  7        0.000   0.000   0.000   0.000
  8       -0.000   0.000   0.000  -0.000
tot       -0.000  -0.000  -0.000  -0.000