 vasp.5.3.3 18Dez12 (build Jun 24 2015 15:58:02) complex

 executed on             LinuxIFC date 2023.04.24  08:21:03

 INCAR:
 POTCAR:    PAW Ba_sv_GW 23Mar2010
 POTCAR:    PAW_PBE Ti 08Apr2002
 POTCAR:    PAW_PBE O 08Apr2002

 POTCAR:    PAW Ba_sv_GW 23Mar2010
   VRHFIN =Ba: s2p6s2

   TITEL  = PAW Ba_sv_GW 23Mar2010
   POMASS =  137.327; ZVAL   =   10.000    mass and valenz
   ENMAX  =  237.515; ENMIN  =  178.136 eV

 POTCAR:    PAW_PBE Ti 08Apr2002
   VRHFIN =Ti: d3 s1

   TITEL  = PAW_PBE Ti 08Apr2002
   POMASS =   47.880; ZVAL   =    4.000    mass and valenz
   ENMAX  =  178.330; ENMIN  =  133.747 eV

 POTCAR:    PAW_PBE O 08Apr2002
   VRHFIN =O: s2p4

   TITEL  = PAW_PBE O 08Apr2002
   POMASS =   16.000; ZVAL   =    6.000    mass and valenz
   ENMAX  =  400.000; ENMIN  =  300.000 eV

  PAW Ba_sv_GW 23Mar2010                :
  PAW_PBE Ti 08Apr2002                  :
  PAW_PBE O 08Apr2002                   :

 POSCAR: Ba1 Ti1 O3
  positions in direct lattice
 exchange correlation table for  LEXCH =        8
   RHO(1)=    0.500       N(1)  =     2000
   RHO(2)=  100.500       N(2)  =     4000

 ion  position               nearest neighbor table
   1  0.500  0.500  0.500-
   2  0.000  0.000  0.000-   3 2.00   4 2.00   5 2.00   5 2.00   4 2.00   3 2.00
   3  0.500  0.000  0.000-   2 2.00   2 2.00
   4  0.000  0.500  0.000-   2 2.00   2 2.00
   5  0.000  0.000  0.500-   2 2.00   2 2.00

  LATTYP: Found a simple cubic cell.
 ALAT       =     4.0076816357

  Lattice vectors:

 A1 = (   4.0076816357,   0.0000000000,   0.0000000000)
 A2 = (   0.0000000000,   4.0076816357,   0.0000000000)
 A3 = (   0.0000000000,   0.0000000000,   4.0076816357)

Analysis of symmetry for initial positions (statically):
 Subroutine PRICEL returns:
 Original cell was already a primitive cell.

 Routine SETGRP: Setting up the symmetry group for a
 simple cubic supercell.

 Subroutine GETGRP returns: Found 48 space group operations
 (whereof 48 operations were pure point group operations)
 out of a pool of 48 trial point group operations.

The static configuration has the point symmetry O_h .

Analysis of symmetry for dynamics (positions and initial velocities):
 Subroutine PRICEL returns:
 Original cell was already a primitive cell.

 Routine SETGRP: Setting up the symmetry group for a
 simple cubic supercell.

 Subroutine GETGRP returns: Found 48 space group operations
 (whereof 48 operations were pure point group operations)
 out of a pool of 48 trial point group operations.

The dynamic configuration has the point symmetry O_h .

Analysis of magnetic symmetry:

 Subroutine MAGSYM returns: Found 48 space group operations
 (whereof 48 operations were pure point group operations)
 out of a pool of 48 trial space group operations
 (whereof 48 operations were pure point group operations)
 and found also     1 'primitive' translations

The magnetic configuration has the point symmetry O_h .

 irot  :   1
 isymop:   1   0   0
           0   1   0
           0   0   1

 gtrans:     0.0000000     0.0000000     0.0000000

 ptrans:     0.0000000     0.0000000     0.0000000
 rotmap:
 (   1->   1)  (   2->   2)  (   3->   3)  (   4->   4)  (   5->   5)

[...]

 irot  :  48
 isymop:   0   0   1
           0   1   0
           1   0   0

 gtrans:     0.0000000     0.0000000     0.0000000

 ptrans:     0.0000000     0.0000000     0.0000000
 rotmap:
 (   1->   1)  (   2->   2)  (   3->   5)  (   4->   4)  (   5->   3)

 KPOINTS: Automatic mesh

Automatic generation of k-mesh.
Space group operators:
 irot       det(A)        alpha          n_x          n_y          n_z        tau_x        tau_y        tau_z
    1     1.000000     0.000000     1.000000     0.000000     0.000000     0.000000     0.000000     0.000000
    2    -1.000000     0.000000     1.000000     0.000000     0.000000     0.000000     0.000000     0.000000
    3     1.000000   120.000000    -0.577350    -0.577350    -0.577350     0.000000     0.000000     0.000000
    4    -1.000000   120.000000    -0.577350    -0.577350    -0.577350     0.000000     0.000000     0.000000
    5     1.000000   120.000000     0.577350     0.577350     0.577350     0.000000     0.000000     0.000000
    6    -1.000000   120.000000     0.577350     0.577350     0.577350     0.000000     0.000000     0.000000
    7     1.000000    90.000000     0.000000     0.000000    -1.000000     0.000000     0.000000     0.000000
    8    -1.000000    90.000000     0.000000     0.000000    -1.000000     0.000000     0.000000     0.000000
    9     1.000000   180.000000     0.000000    -0.707107    -0.707107     0.000000     0.000000     0.000000
   10    -1.000000   180.000000     0.000000    -0.707107    -0.707107     0.000000     0.000000     0.000000
   11     1.000000    90.000000     0.000000     1.000000     0.000000     0.000000     0.000000     0.000000
   12    -1.000000    90.000000     0.000000     1.000000     0.000000     0.000000     0.000000     0.000000
   13     1.000000   180.000000    -0.000000    -0.000000     1.000000     0.000000     0.000000     0.000000
   14    -1.000000   180.000000    -0.000000    -0.000000     1.000000     0.000000     0.000000     0.000000
   15     1.000000   120.000000    -0.577350     0.577350     0.577350     0.000000     0.000000     0.000000
   16    -1.000000   120.000000    -0.577350     0.577350     0.577350     0.000000     0.000000     0.000000
   17     1.000000   120.000000    -0.577350     0.577350    -0.577350     0.000000     0.000000     0.000000
   18    -1.000000   120.000000    -0.577350     0.577350    -0.577350     0.000000     0.000000     0.000000
   19     1.000000    90.000000    -0.000000    -0.000000     1.000000     0.000000     0.000000     0.000000
   20    -1.000000    90.000000    -0.000000    -0.000000     1.000000     0.000000     0.000000     0.000000
   21     1.000000    90.000000    -1.000000     0.000000    -0.000000     0.000000     0.000000     0.000000
   22    -1.000000    90.000000    -1.000000     0.000000    -0.000000     0.000000     0.000000     0.000000
   23     1.000000   180.000000    -0.707107     0.000000    -0.707107     0.000000     0.000000     0.000000
   24    -1.000000   180.000000    -0.707107     0.000000    -0.707107     0.000000     0.000000     0.000000
   25     1.000000   120.000000     0.577350    -0.577350     0.577350     0.000000     0.000000     0.000000
   26    -1.000000   120.000000     0.577350    -0.577350     0.577350     0.000000     0.000000     0.000000
   27     1.000000   120.000000    -0.577350    -0.577350     0.577350     0.000000     0.000000     0.000000
   28    -1.000000   120.000000    -0.577350    -0.577350     0.577350     0.000000     0.000000     0.000000
   29     1.000000   180.000000     1.000000    -0.000000     0.000000     0.000000     0.000000     0.000000
   30    -1.000000   180.000000     1.000000    -0.000000     0.000000     0.000000     0.000000     0.000000
   31     1.000000    90.000000    -0.000000    -1.000000     0.000000     0.000000     0.000000     0.000000
   32    -1.000000    90.000000    -0.000000    -1.000000     0.000000     0.000000     0.000000     0.000000
   33     1.000000   180.000000     0.707107     0.707107     0.000000     0.000000     0.000000     0.000000
   34    -1.000000   180.000000     0.707107     0.707107     0.000000     0.000000     0.000000     0.000000
   35     1.000000    90.000000     1.000000    -0.000000    -0.000000     0.000000     0.000000     0.000000
   36    -1.000000    90.000000     1.000000    -0.000000    -0.000000     0.000000     0.000000     0.000000
   37     1.000000   120.000000     0.577350    -0.577350    -0.577350     0.000000     0.000000     0.000000
   38    -1.000000   120.000000     0.577350    -0.577350    -0.577350     0.000000     0.000000     0.000000
   39     1.000000   180.000000     0.000000     1.000000     0.000000     0.000000     0.000000     0.000000
   40    -1.000000   180.000000     0.000000     1.000000     0.000000     0.000000     0.000000     0.000000
   41     1.000000   120.000000     0.577350     0.577350    -0.577350     0.000000     0.000000     0.000000
   42    -1.000000   120.000000     0.577350     0.577350    -0.577350     0.000000     0.000000     0.000000
   43     1.000000   180.000000    -0.000000    -0.707107     0.707107     0.000000     0.000000     0.000000
   44    -1.000000   180.000000    -0.000000    -0.707107     0.707107     0.000000     0.000000     0.000000
   45     1.000000   180.000000     0.707107    -0.707107     0.000000     0.000000     0.000000     0.000000
   46    -1.000000   180.000000     0.707107    -0.707107     0.000000     0.000000     0.000000     0.000000
   47     1.000000   180.000000     0.707107    -0.000000    -0.707107     0.000000     0.000000     0.000000
   48    -1.000000   180.000000     0.707107    -0.000000    -0.707107     0.000000     0.000000     0.000000

 Subroutine IBZKPT returns following result:

 Found     35 irreducible k-points:

 Following reciprocal coordinates:
            Coordinates               Weight
  0.000000  0.000000  0.000000      1.000000
  0.125000  0.000000  0.000000      6.000000
  0.250000  0.000000  0.000000      6.000000
  0.375000  0.000000  0.000000      6.000000
  0.500000  0.000000  0.000000      3.000000
  0.125000  0.125000  0.000000     12.000000
  0.250000  0.125000  0.000000     24.000000
  0.375000  0.125000  0.000000     24.000000
  0.500000  0.125000  0.000000     12.000000
  0.250000  0.250000  0.000000     12.000000
  0.375000  0.250000  0.000000     24.000000
  0.500000  0.250000  0.000000     12.000000
  0.375000  0.375000  0.000000     12.000000
  0.500000  0.375000  0.000000     12.000000
  0.500000  0.500000  0.000000      3.000000
  0.125000  0.125000  0.125000      8.000000
  0.250000  0.125000  0.125000     24.000000
  0.375000  0.125000  0.125000     24.000000
  0.500000  0.125000  0.125000     12.000000
  0.250000  0.250000  0.125000     24.000000
  0.375000  0.250000  0.125000     48.000000
  0.500000  0.250000  0.125000     24.000000
  0.375000  0.375000  0.125000     24.000000
  0.500000  0.375000  0.125000     24.000000
  0.500000  0.500000  0.125000      6.000000
  0.250000  0.250000  0.250000      8.000000
  0.375000  0.250000  0.250000     24.000000
  0.500000  0.250000  0.250000     12.000000
  0.375000  0.375000  0.250000     24.000000
  0.500000  0.375000  0.250000     24.000000
  0.500000  0.500000  0.250000      6.000000
  0.375000  0.375000  0.375000      8.000000
  0.500000  0.375000  0.375000     12.000000
  0.500000  0.500000  0.375000      6.000000
  0.500000  0.500000  0.500000      1.000000

 Following cartesian coordinates:
            Coordinates               Weight
  0.000000  0.000000  0.000000      1.000000
  0.031190 -0.000000  0.000000      6.000000
  0.062380 -0.000000  0.000000      6.000000
  0.093570 -0.000000  0.000000      6.000000
  0.124760 -0.000000  0.000000      3.000000
  0.031190  0.031190  0.000000     12.000000
  0.062380  0.031190  0.000000     24.000000
  0.093570  0.031190  0.000000     24.000000
  0.124760  0.031190  0.000000     12.000000
  0.062380  0.062380  0.000000     12.000000
[...]
 k-point 17 :   0.2500 0.1250 0.1250  plane waves:    1646
 k-point 18 :   0.3750 0.1250 0.1250  plane waves:    1622
 k-point 19 :   0.5000 0.1250 0.1250  plane waves:    1626
 k-point 20 :   0.2500 0.2500 0.1250  plane waves:    1636
 k-point 21 :   0.3750 0.2500 0.1250  plane waves:    1626
 k-point 22 :   0.5000 0.2500 0.1250  plane waves:    1628
 k-point 23 :   0.3750 0.3750 0.1250  plane waves:    1637
 k-point 24 :   0.5000 0.3750 0.1250  plane waves:    1632
 k-point 25 :   0.5000 0.5000 0.1250  plane waves:    1640
 k-point 26 :   0.2500 0.2500 0.2500  plane waves:    1637
 k-point 27 :   0.3750 0.2500 0.2500  plane waves:    1635
 k-point 28 :   0.5000 0.2500 0.2500  plane waves:    1666
 k-point 29 :   0.3750 0.3750 0.2500  plane waves:    1638
 k-point 30 :   0.5000 0.3750 0.2500  plane waves:    1632
 k-point 31 :   0.5000 0.5000 0.2500  plane waves:    1624
 k-point 32 :   0.3750 0.3750 0.3750  plane waves:    1622
 k-point 33 :   0.5000 0.3750 0.3750  plane waves:    1636
 k-point 34 :   0.5000 0.5000 0.3750  plane waves:    1628
 k-point 35 :   0.5000 0.5000 0.5000  plane waves:    1640

 maximum and minimum number of plane-waves per node :      1666     1622

 maximum number of plane-waves:      1666
 maximum index in each direction:
   IXMAX=    7   IYMAX=    7   IZMAX=    7
   IXMIN=   -7   IYMIN=   -7   IZMIN=   -7

 NGX is ok and might be reduce to  30
 NGY is ok and might be reduce to  30
 NGZ is ok and might be reduce to  30

 serial   3D FFT for wavefunctions
 parallel 3D FFT for charge:
    minimum data exchange during FFTs selected (reduces bandwidth)

 Broyden mixing: mesh for mixing (old mesh)
   NGX = 15   NGY = 15   NGZ = 15
  (NGX  = 60   NGY  = 60   NGZ  = 60)
  gives a total of   3375 points

 initial charge density was supplied:
 charge density of overlapping atoms calculated
 number of electron      32.0000000 magnetization       5.0000000
 keeping initial charge density in first step

 Maximum index for augmentation-charges         1109 (set IRDMAX)

 First call to EWALD:  gamma=   0.442
 Maximum number of real-space cells 3x 3x 3
 Maximum number of reciprocal cells 3x 3x 3

 FEWALD executed in parallel

----------------------------------------- Iteration    1(   1)  ---------------------------------------

 eigenvalue-minimisations  :  4480
 total energy-change (2. order) : 0.1448990E+03  (-0.1646075E+04)
 number of electron      32.0000000 magnetization       5.0000000
 augmentation part       32.0000000 magnetization       5.0000000

 Free energy of the ion-electron system (eV)
  alpha Z        PSCENC =       156.49721995
  Ewald energy   TEWEN  =     -1884.65392046
  -1/2 Hartree   DENC   =      -349.97780500
  -exchange  EXHF       =         0.00000000
  -V(xc)+E(xc)   XCENC  =       -14.59820793
  PAW double counting   =      1782.40361899    -1660.80875785
  entropy T*S    EENTRO =        -0.00240280
  eigenvalues    EBANDS =        26.21556197
  atomic energy  EATOM  =      2089.82372321
  free energy    TOTEN  =       144.89903007 eV

  energy without entropy =      144.90143287  energy(sigma->0) =      144.90023147

[...]

 eigenvalue-minimisations  :  6112
 total energy-change (2. order) :-0.1946644E+03  (-0.1906852E+03)
 number of electron      32.0000000 magnetization       5.0000000
 augmentation part       32.0000000 magnetization       5.0000000

[...]

 Broyden mixing:
  rms(total) = 0.33729E+01    rms(broyden)= 0.33727E+01
  rms(prec ) = 0.57105E+01
  weight for this iteration     100.00

[...]

 eigenvalues of (default mixing * dielectric matrix)
  average eigenvalue GAMMA=   0.7486
  0.7486

[...]

 average (electrostatic) potential at core
  the test charge radii are     1.2192  1.2598  0.7215
  (the norm of the test charge is              1.0000)
       1 -70.6866       2 -25.6608       3 -69.5783       4 -69.5783       5 -69.5783

 E-fermi :   4.1846     XC(G=0): -11.3005     alpha+bet :-14.4026

 spin component 1

 k-point   1 :       0.0000    0.0000    0.0000
  band No.  band energies     occupation
      1     -20.7126      1.00000
      2     -12.9149      1.00000
      3     -12.2283      1.00000
      4     -12.2283      1.00000
      5      -5.9041      1.00000
      6      -5.9041      1.00000
      7      -5.9041      1.00000
      8       1.6569      1.00000
      9       1.6569      1.00000
     10       1.6569      1.00000
     11       2.8449      1.00000
     12       2.8449      1.00000
     13       2.8449      1.00000
     14       3.8570      1.00000
     15       3.8570      1.00000
     16       3.8570      1.00000
     17       5.5733      0.00000
     18       5.5733      0.00000
     19       5.5733      0.00000
     20       7.6209      0.00000
     21       7.6209      0.00000
     22       9.1116      0.00000
     23       9.1116      0.00000
     24      11.3776      0.00000
     25      12.5606      0.00000
     26      12.5606      0.00000
     27      12.5606      0.00000
     28      15.1311      0.00000
     29      15.4548      0.00000
     30      15.4548      0.00000
     31      15.4548      0.00000
     32      15.5874      0.00000

[...]

 soft charge-density along one line, spin component           1
         0         1         2         3         4         5         6         7         8         9
 total charge-density along one line

[...]

------------------------ aborting loop because EDIFF is reached ----------------------------------------

 total charge

# of ion     s       p       d       f       tot
  1        2.363   5.716   0.309   0.074   8.461
  2        0.521   0.994   2.516   0.000   4.032
  3        1.585   3.241   0.000   0.000   4.827
  4        1.571   3.418   0.000   0.000   4.989
  5        1.548   3.687   0.000   0.000   5.235
tot        7.588  17.056   2.825   0.074  27.544

 magnetization (x)

[...]

  FORCE on cell =-STRESS in cart. coord.  units (eV):
  Direction    XX          YY          ZZ          XY          YZ          ZX
  Alpha Z   156.49722   156.49722   156.49722
  Ewald    -628.21840  -628.21840  -628.21840    -0.00000     0.00000     0.00000
  Hartree   132.43626   132.43626   132.43626    -0.00000    -0.00000    -0.00000
  E(xc)    -156.27811  -156.27811  -156.27811     0.00000    -0.00000    -0.00000
  Local     -81.25259   -81.25259   -81.25259     0.00000     0.00000    -0.00000
  n-local     4.95172     8.88339    13.79709     0.19433    -0.00641     0.05508
  augment    -0.65115    -0.65115    -0.65115     0.00000    -0.00000     0.00000
  Kinetic   559.39565   572.36058   575.63811    -3.10223    -3.60441    -1.97724
  Fock        0.00000     0.00000     0.00000     0.00000     0.00000     0.00000
  Total       0.87541     0.87541     0.87541     0.00000    -0.00000    -0.00000
  in kB      21.78935    21.78935    21.78935     0.00000    -0.00000    -0.00000

 VOLUME and BASIS-vectors are now :
  energy-cutoff  :      500.00
  volume of cell :       64.37
      direct lattice vectors                 reciprocal lattice vectors
     4.007681636  0.000000000  0.000000000     0.249520818 -0.000000000  0.000000000
     0.000000000  4.007681636  0.000000000     0.000000000  0.249520818  0.000000000
     0.000000000  0.000000000  4.007681636    -0.000000000 -0.000000000  0.249520818

[...]

 FORCES acting on ions
    electron-ion (+dipol)            ewald-force                    non-local-force                 convergence-correction
   0.222E-13 -.184E-11 -.426E-12   0.303E-14 -.151E-14 0.127E-14   -.260E-24 0.000E+00 0.000E+00   0.253E-14 -.796E-14 0.900E-14
   0.444E-14 0.248E-14 -.230E-14   0.308E-15 0.284E-15 0.168E-14   -.178E-24 0.000E+00 0.000E+00   0.187E-14 0.465E-14 -.573E-14
   0.109E-12 0.721E-14 0.234E-11   -.484E-15 0.451E-16 -.250E-14   0.245E-25 0.000E+00 0.331E-23   -.145E-13 -.461E-13 -.386E-13
   0.626E-14 0.107E-12 -.119E-13   0.125E-14 0.407E-14 -.359E-15   0.150E-24 0.000E+00 0.331E-23   -.613E-13 -.175E-13 -.388E-13
   0.577E-14 0.626E-14 0.810E-13   -.301E-14 -.303E-14 -.130E-14   0.499E-23 0.000E+00 0.000E+00   -.577E-13 -.466E-13 -.402E-14
   0.148E-12 -.172E-11 0.198E-11   0.110E-14 -.135E-15 -.122E-14   0.473E-23 0.000E+00 0.662E-23   -.129E-12 -.114E-12 -.781E-13

 POSITION                                       TOTAL-FORCE (eV/Angst)
      2.00384      2.00384      2.00384         0.000000      0.000000      0.000000
      0.00000      0.00000      0.00000         0.000000      0.000000      0.000000
      2.00384      0.00000      0.00000        -0.000000      0.000000     -0.000000
      0.00000      2.00384      0.00000        -0.000000      0.000000      0.000000
      0.00000      0.00000      2.00384        -0.000000      0.000000      0.000000
    total drift:                                0.000000     -0.000000      0.000000

  FREE ENERGIE OF THE ION-ELECTRON SYSTEM (eV)
  free  energy   TOTEN  =       -42.61137426 eV

  energy  without entropy=      -42.61137426  energy(sigma->0) =      -42.61137426

[...]

 d Force = 0.0000000E+00[ 0.000E+00, 0.000E+00]  d Energy = 0.8050635E-04-0.805E-04
 d Force = 0.0000000E+00[ 0.000E+00, 0.000E+00]  d Ewald  =-0.1578532E+02 0.158E+02

 Steepest descent step on ions:
 trial-energy change:   -0.000081  1 .order    0.000045   -0.022182    0.022272
  (g-gl).g = 0.222E-01      g.g   = 0.222E-01  gl.gl    = 0.000E+00
 g(Force)  = 0.299E-61   g(Stress)= 0.222E-01 ortho     = 0.000E+00
 gamma     =   0.00000
 trial     =   1.00000
 opt step  =   0.50322  (harmonic =   0.49899) maximal distance =0.00000000
 next E    =   -42.616972   (d E  =  -0.00560)

 FEWALD executed in parallel

[...]

 eigenvalue-minimisations  :  4608
 total energy-change (2. order) :-0.3909075E-01  (-0.7606267E-01)
 number of electron      31.9999977 magnetization      -0.0000000
 augmentation part        1.2867352 magnetization       0.0000002

[...]

 Broyden mixing:
  rms(total) = 0.65176E-02    rms(broyden)= 0.65175E-02
  rms(prec ) = 0.75671E-02
  weight for this iteration     100.00

 eigenvalues of (default mixing * dielectric matrix)
  average eigenvalue GAMMA=   1.4714
  2.3398  2.0176  0.5303  1.5470  0.9223

[...]

----------------------------------------- Iteration    3(   7)  ---------------------------------------

 eigenvalue-minimisations  :  6336
 total energy-change (2. order) : 0.4878391E-05  (-0.4761273E-05)
 number of electron      31.9999977 magnetization      -0.0000000
 augmentation part        1.2742751 magnetization      -0.0000008

 Free energy of the ion-electron system (eV)
  alpha Z        PSCENC =       154.51852502
  Ewald energy   TEWEN  =     -1876.67724373
  -1/2 Hartree   DENC   =      -400.21311830
  -exchange  EXHF       =         0.00000000
  -V(xc)+E(xc)   XCENC  =       -11.60307124
  PAW double counting   =      2705.73995306    -2584.23563482
  entropy T*S    EENTRO =        -0.00000000
  eigenvalues    EBANDS =      -119.97008307
  atomic energy  EATOM  =      2089.82372321
  free energy    TOTEN  =       -42.61694987 eV

  energy without entropy =      -42.61694987  energy(sigma->0) =      -42.61694987

 average (electrostatic) potential at core
  the test charge radii are     1.2192  1.2598  0.7215
  (the norm of the test charge is              1.0000)
       1 -70.8499       2 -25.8140       3 -69.6800       4 -69.6800       5 -69.6800

 E-fermi :   4.0398     XC(G=0): -11.2322     alpha+bet :-14.2205

[...]

 spin component 2

[...]

 k-point  35 :       0.5000    0.5000    0.5000
  band No.  band energies     occupation
      1     -20.6035      1.00000
      2     -12.1724      1.00000
      3     -12.1724      1.00000
      4     -12.1724      1.00000
      5      -6.7123      1.00000
      6      -6.7123      1.00000
      7      -6.7123      1.00000
      8      -0.5729      1.00000
      9       0.0641      1.00000
     10       0.0641      1.00000
     11       1.4719      1.00000
     12       1.4719      1.00000
     13       1.4719      1.00000
     14       3.8285      1.00000
     15       3.8285      1.00000
     16       3.8285      1.00000
     17       7.7377      0.00000
     18       7.7377      0.00000
     19       7.7377      0.00000
     20      10.5941      0.00000
     21      10.5941      0.00000
     22      10.5941      0.00000
     23      11.1429      0.00000
     24      11.1429      0.00000
     25      14.1345      0.00000
     26      14.1345      0.00000
     27      14.6100      0.00000
     28      14.6100      0.00000
     29      14.6100      0.00000
     30      14.8885      0.00000
     31      15.5258      0.00000
     32      15.5258      0.00000

[...]

 soft charge-density along one line, spin component           2
         0         1         2         3         4         5         6         7         8         9
 total charge-density along one line

------------------------ aborting loop because EDIFF is reached ----------------------------------------

[...]

  FORCE on cell =-STRESS in cart. coord.  units (eV):
  Direction    XX          YY          ZZ          XY          YZ          ZX
  Alpha Z   154.51853   154.51853   154.51853
  Ewald    -625.55950  -625.55950  -625.55950    -0.00000     0.00000     0.00000
  Hartree   133.40728   133.40728   133.40728    -0.00000    -0.00000    -0.00000
  E(xc)    -156.06609  -156.06609  -156.06609    -0.00000    -0.00000    -0.00000
  Local     -83.04882   -83.04882   -83.04882    -0.00000    -0.00000    -0.00000
  n-local     4.86605     8.70845    13.52077     0.19180    -0.00175     0.05606
  augment    -0.65843    -0.65843    -0.65843    -0.00000     0.00000     0.00000
  Kinetic   558.79971   571.55182   574.76802    -3.05993    -3.54649    -1.94948
  Fock        0.00000     0.00000     0.00000     0.00000     0.00000     0.00000
  Total      -0.00210    -0.00210    -0.00210    -0.00000    -0.00000     0.00000
  in kB      -0.05171    -0.05171    -0.05171    -0.00000    -0.00000     0.00000

 VOLUME and BASIS-vectors are now :
  energy-cutoff  :      500.00
  volume of cell :       65.19
      direct lattice vectors                 reciprocal lattice vectors
     4.024715988  0.000000000  0.000000000     0.248464737 -0.000000000  0.000000000
     0.000000000  4.024715988  0.000000000    -0.000000000  0.248464737  0.000000000
    -0.000000000 -0.000000000  4.024715988    -0.000000000 -0.000000000  0.248464737

  length of vectors
     4.024715988  4.024715988  4.024715988     0.248464737  0.248464737  0.248464737

 FORCES acting on ions
    electron-ion (+dipol)            ewald-force                    non-local-force                 convergence-correction
   0.169E-13 -.185E-11 -.436E-12   0.124E-14 0.730E-14 0.299E-14   0.112E-24 0.212E-27 -.155E-24   -.697E-14 0.951E-15 0.574E-14
   0.642E-14 0.225E-14 -.485E-15   -.396E-14 -.873E-15 -.396E-15   -.360E-24 0.295E-27 0.000E+00   0.540E-15 0.242E-14 -.650E-14
   0.106E-12 0.806E-14 0.235E-11   0.617E-14 -.670E-14 -.301E-14   -.548E-24 -.109E-26 -.414E-24   -.254E-13 -.482E-13 -.418E-13
   0.660E-14 0.107E-12 -.122E-13   -.491E-14 0.118E-14 -.304E-14   -.131E-25 0.174E-26 0.000E+00   -.654E-13 -.135E-13 -.359E-13
   0.706E-14 0.726E-14 0.802E-13   0.544E-15 -.160E-14 0.438E-14   -.360E-24 0.947E-28 -.414E-24   -.683E-13 -.446E-13 0.776E-15
   0.143E-12 -.172E-11 0.198E-11   -.923E-15 -.695E-15 0.922E-15   -.117E-23 0.125E-26 -.982E-24   -.166E-12 -.103E-12 -.776E-13

 POSITION                                       TOTAL-FORCE (eV/Angst)
      2.01236      2.01236      2.01236         0.000000     -0.000000      0.000000
      0.00000      0.00000      0.00000        -0.000000     -0.000000      0.000000
      2.01236      0.00000      0.00000        -0.000000      0.000000     -0.000000
      0.00000      2.01236      0.00000        -0.000000      0.000000      0.000000
     -0.00000     -0.00000      2.01236        -0.000000     -0.000000      0.000000
    total drift:                               -0.000000     -0.000000      0.000000

  FREE ENERGIE OF THE ION-ELECTRON SYSTEM (eV)
  free  energy   TOTEN  =       -42.61694987 eV

  energy  without entropy=      -42.61694987  energy(sigma->0) =      -42.61694987

 d Force = 0.0000000E+00[ 0.000E+00, 0.000E+00]  d Energy = 0.5495106E-02-0.550E-02
 d Force = 0.0000000E+00[ 0.000E+00, 0.000E+00]  d Ewald  = 0.7808642E+01-0.781E+01

 reached required accuracy - stopping structural energy minimisation
 writing wavefunctions

 total charge

[...]

 magnetization (x)

# of ion     s       p       d       f       tot
  1        0.000  -0.000   0.000   0.000   0.000
  2       -0.000  -0.000  -0.000   0.000  -0.000
  3       -0.000   0.000   0.000   0.000  -0.000
  4       -0.000   0.000   0.000   0.000  -0.000
  5       -0.000   0.000   0.000   0.000  -0.000
tot        0.000  -0.000  -0.000   0.000   0.000