 vasp.5.3.3 18Dez12 (build Jun 24 2015 15:58:02) complex

 executed on             LinuxIFC date 2023.04.24  15:35:34

 INCAR:
 POTCAR:    PAW_PBE La 06Sep2000
 POTCAR:    PAW_PBE Al 04Jan2001
 POTCAR:    PAW_PBE O 08Apr2002

 POTCAR:    PAW_PBE La 06Sep2000
   VRHFIN =La : [core=Kr4d]

   TITEL  = PAW_PBE La 06Sep2000
   POMASS =  138.900; ZVAL   =   11.000    mass and valenz
   ENMAX  =  219.292; ENMIN  =  164.469 eV

 POTCAR:    PAW_PBE Al 04Jan2001
   VRHFIN =Al: s2p1

   TITEL  = PAW_PBE Al 04Jan2001
   POMASS =   26.981; ZVAL   =    3.000    mass and valenz
   ENMAX  =  240.300; ENMIN  =  180.225 eV

 POTCAR:    PAW_PBE O 08Apr2002
   VRHFIN =O: s2p4

   TITEL  = PAW_PBE O 08Apr2002
   POMASS =   16.000; ZVAL   =    6.000    mass and valenz
   ENMAX  =  400.000; ENMIN  =  300.000 eV

  PAW_PBE La 06Sep2000                  :
  PAW_PBE Al 04Jan2001                  :
  PAW_PBE O 08Apr2002                   :

 POSCAR: La1 Al1 O3
  positions in direct lattice
 exchange correlation table for  LEXCH =        8
   RHO(1)=    0.500       N(1)  =     2000
   RHO(2)=  100.500       N(2)  =     4000

 ion  position               nearest neighbor table
   1  0.500  0.500  0.500-   4 2.67   4 2.67   5 2.67   3 2.67   5 2.67   3 2.67   5 2.67   5 2.67
                             3 2.67   4 2.67   3 2.67   4 2.67   2 3.28   2 3.28   2 3.28   2 3.28
   2  0.000  0.000  0.000-   3 1.89   4 1.89   5 1.89   4 1.89   3 1.89   5 1.89   1 3.28   1 3.28
                             1 3.28   1 3.28   1 3.28   1 3.28   1 3.28   1 3.28
   3  0.000  0.500  0.000-   2 1.89   2 1.89   1 2.67   1 2.67   1 2.67   1 2.67
   4  0.000  0.000  0.500-   2 1.89   2 1.89   1 2.67   1 2.67   1 2.67   1 2.67
   5  0.500  0.000  0.000-   2 1.89   2 1.89   1 2.67   1 2.67   1 2.67   1 2.67

  LATTYP: Found a simple cubic cell.
 ALAT       =     3.7829488000

  Lattice vectors:

 A1 = (   3.7829488000,   0.0000000000,   0.0000000000)
 A2 = (   0.0000000000,   3.7829488000,   0.0000000000)
 A3 = (   0.0000000000,   0.0000000000,   3.7829488000)

Analysis of symmetry for initial positions (statically):
 Subroutine PRICEL returns:
 Original cell was already a primitive cell.

 Routine SETGRP: Setting up the symmetry group for a
 simple cubic supercell.

 Subroutine GETGRP returns: Found 48 space group operations
 (whereof 48 operations were pure point group operations)
 out of a pool of 48 trial point group operations.

The static configuration has the point symmetry O_h .

Analysis of symmetry for dynamics (positions and initial velocities):
 Subroutine PRICEL returns:
 Original cell was already a primitive cell.

 Routine SETGRP: Setting up the symmetry group for a
 simple cubic supercell.

 Subroutine GETGRP returns: Found 48 space group operations
 (whereof 48 operations were pure point group operations)
 out of a pool of 48 trial point group operations.

The dynamic configuration has the point symmetry O_h .

Analysis of magnetic symmetry:

 Subroutine MAGSYM returns: Found 48 space group operations
 (whereof 48 operations were pure point group operations)
 out of a pool of 48 trial space group operations
 (whereof 48 operations were pure point group operations)
 and found also     1 'primitive' translations

The magnetic configuration has the point symmetry O_h .

 irot  :   1
 isymop:   1   0   0
           0   1   0
           0   0   1

 gtrans:     0.0000000     0.0000000     0.0000000

 ptrans:     0.0000000     0.0000000     0.0000000
 rotmap:
 (   1->   1)  (   2->   2)  (   3->   3)  (   4->   4)  (   5->   5)

[...]

 irot  :  48
 isymop:   0   0   1
           0   1   0
           1   0   0

 gtrans:     0.0000000     0.0000000     0.0000000

 ptrans:     0.0000000     0.0000000     0.0000000
 rotmap:
 (   1->   1)  (   2->   2)  (   3->   3)  (   4->   5)  (   5->   4)

 KPOINTS: Automatic mesh

Automatic generation of k-mesh.
Space group operators:
 irot       det(A)        alpha          n_x          n_y          n_z        tau_x        tau_y        tau_z
    1     1.000000     0.000000     1.000000     0.000000     0.000000     0.000000     0.000000     0.000000
    2    -1.000000     0.000000     1.000000     0.000000     0.000000     0.000000     0.000000     0.000000
    3     1.000000   120.000000    -0.577350    -0.577350    -0.577350     0.000000     0.000000     0.000000
    4    -1.000000   120.000000    -0.577350    -0.577350    -0.577350     0.000000     0.000000     0.000000
    5     1.000000   120.000000     0.577350     0.577350     0.577350     0.000000     0.000000     0.000000
    6    -1.000000   120.000000     0.577350     0.577350     0.577350     0.000000     0.000000     0.000000
    7     1.000000    90.000000     0.000000     0.000000    -1.000000     0.000000     0.000000     0.000000
    8    -1.000000    90.000000     0.000000     0.000000    -1.000000     0.000000     0.000000     0.000000
    9     1.000000   180.000000     0.000000    -0.707107    -0.707107     0.000000     0.000000     0.000000
   10    -1.000000   180.000000     0.000000    -0.707107    -0.707107     0.000000     0.000000     0.000000
   11     1.000000    90.000000     0.000000     1.000000     0.000000     0.000000     0.000000     0.000000
   12    -1.000000    90.000000     0.000000     1.000000     0.000000     0.000000     0.000000     0.000000
   13     1.000000   180.000000    -0.000000    -0.000000     1.000000     0.000000     0.000000     0.000000
   14    -1.000000   180.000000    -0.000000    -0.000000     1.000000     0.000000     0.000000     0.000000
   15     1.000000   120.000000    -0.577350     0.577350     0.577350     0.000000     0.000000     0.000000
   16    -1.000000   120.000000    -0.577350     0.577350     0.577350     0.000000     0.000000     0.000000
   17     1.000000   120.000000    -0.577350     0.577350    -0.577350     0.000000     0.000000     0.000000
   18    -1.000000   120.000000    -0.577350     0.577350    -0.577350     0.000000     0.000000     0.000000
   19     1.000000    90.000000    -0.000000    -0.000000     1.000000     0.000000     0.000000     0.000000
   20    -1.000000    90.000000    -0.000000    -0.000000     1.000000     0.000000     0.000000     0.000000
   21     1.000000    90.000000    -1.000000     0.000000    -0.000000     0.000000     0.000000     0.000000
   22    -1.000000    90.000000    -1.000000     0.000000    -0.000000     0.000000     0.000000     0.000000
   23     1.000000   180.000000    -0.707107     0.000000    -0.707107     0.000000     0.000000     0.000000
   24    -1.000000   180.000000    -0.707107     0.000000    -0.707107     0.000000     0.000000     0.000000
   25     1.000000   120.000000     0.577350    -0.577350     0.577350     0.000000     0.000000     0.000000
   26    -1.000000   120.000000     0.577350    -0.577350     0.577350     0.000000     0.000000     0.000000
   27     1.000000   120.000000    -0.577350    -0.577350     0.577350     0.000000     0.000000     0.000000
   28    -1.000000   120.000000    -0.577350    -0.577350     0.577350     0.000000     0.000000     0.000000
   29     1.000000   180.000000     1.000000    -0.000000     0.000000     0.000000     0.000000     0.000000
   30    -1.000000   180.000000     1.000000    -0.000000     0.000000     0.000000     0.000000     0.000000
   31     1.000000    90.000000    -0.000000    -1.000000     0.000000     0.000000     0.000000     0.000000
   32    -1.000000    90.000000    -0.000000    -1.000000     0.000000     0.000000     0.000000     0.000000
   33     1.000000   180.000000     0.707107     0.707107     0.000000     0.000000     0.000000     0.000000
   34    -1.000000   180.000000     0.707107     0.707107     0.000000     0.000000     0.000000     0.000000
   35     1.000000    90.000000     1.000000    -0.000000    -0.000000     0.000000     0.000000     0.000000
   36    -1.000000    90.000000     1.000000    -0.000000    -0.000000     0.000000     0.000000     0.000000
   37     1.000000   120.000000     0.577350    -0.577350    -0.577350     0.000000     0.000000     0.000000
   38    -1.000000   120.000000     0.577350    -0.577350    -0.577350     0.000000     0.000000     0.000000
   39     1.000000   180.000000     0.000000     1.000000     0.000000     0.000000     0.000000     0.000000
   40    -1.000000   180.000000     0.000000     1.000000     0.000000     0.000000     0.000000     0.000000
   41     1.000000   120.000000     0.577350     0.577350    -0.577350     0.000000     0.000000     0.000000
   42    -1.000000   120.000000     0.577350     0.577350    -0.577350     0.000000     0.000000     0.000000
   43     1.000000   180.000000    -0.000000    -0.707107     0.707107     0.000000     0.000000     0.000000
   44    -1.000000   180.000000    -0.000000    -0.707107     0.707107     0.000000     0.000000     0.000000
   45     1.000000   180.000000     0.707107    -0.707107     0.000000     0.000000     0.000000     0.000000
   46    -1.000000   180.000000     0.707107    -0.707107     0.000000     0.000000     0.000000     0.000000
   47     1.000000   180.000000     0.707107    -0.000000    -0.707107     0.000000     0.000000     0.000000
   48    -1.000000   180.000000     0.707107    -0.000000    -0.707107     0.000000     0.000000     0.000000

 Subroutine IBZKPT returns following result:

 Found     35 irreducible k-points:

 Following reciprocal coordinates:
            Coordinates               Weight
  0.000000  0.000000  0.000000      1.000000
  0.125000  0.000000  0.000000      6.000000
  0.250000  0.000000  0.000000      6.000000
  0.375000  0.000000  0.000000      6.000000
  0.500000  0.000000  0.000000      3.000000
  0.125000  0.125000  0.000000     12.000000
  0.250000  0.125000  0.000000     24.000000
  0.375000  0.125000  0.000000     24.000000
  0.500000  0.125000  0.000000     12.000000
  0.250000  0.250000  0.000000     12.000000
  0.375000  0.250000  0.000000     24.000000
  0.500000  0.250000  0.000000     12.000000
  0.375000  0.375000  0.000000     12.000000
  0.500000  0.375000  0.000000     12.000000
  0.500000  0.500000  0.000000      3.000000
  0.125000  0.125000  0.125000      8.000000
  0.250000  0.125000  0.125000     24.000000
  0.375000  0.125000  0.125000     24.000000
  0.500000  0.125000  0.125000     12.000000
  0.250000  0.250000  0.125000     24.000000
  0.375000  0.250000  0.125000     48.000000
  0.500000  0.250000  0.125000     24.000000
  0.375000  0.375000  0.125000     24.000000
  0.500000  0.375000  0.125000     24.000000
  0.500000  0.500000  0.125000      6.000000
  0.250000  0.250000  0.250000      8.000000
  0.375000  0.250000  0.250000     24.000000
  0.500000  0.250000  0.250000     12.000000
  0.375000  0.375000  0.250000     24.000000
  0.500000  0.375000  0.250000     24.000000
  0.500000  0.500000  0.250000      6.000000
  0.375000  0.375000  0.375000      8.000000
  0.500000  0.375000  0.375000     12.000000
  0.500000  0.500000  0.375000      6.000000
  0.500000  0.500000  0.500000      1.000000

 Following cartesian coordinates:
            Coordinates               Weight
  0.000000  0.000000  0.000000      1.000000
[...]
 k-point 17 :   0.2500 0.1250 0.1250  plane waves:    1365
 k-point 18 :   0.3750 0.1250 0.1250  plane waves:    1369
 k-point 19 :   0.5000 0.1250 0.1250  plane waves:    1388
 k-point 20 :   0.2500 0.2500 0.1250  plane waves:    1368
 k-point 21 :   0.3750 0.2500 0.1250  plane waves:    1376
 k-point 22 :   0.5000 0.2500 0.1250  plane waves:    1372
 k-point 23 :   0.3750 0.3750 0.1250  plane waves:    1376
 k-point 24 :   0.5000 0.3750 0.1250  plane waves:    1372
 k-point 25 :   0.5000 0.5000 0.1250  plane waves:    1392
 k-point 26 :   0.2500 0.2500 0.2500  plane waves:    1382
 k-point 27 :   0.3750 0.2500 0.2500  plane waves:    1394
 k-point 28 :   0.5000 0.2500 0.2500  plane waves:    1378
 k-point 29 :   0.3750 0.3750 0.2500  plane waves:    1377
 k-point 30 :   0.5000 0.3750 0.2500  plane waves:    1378
 k-point 31 :   0.5000 0.5000 0.2500  plane waves:    1400
 k-point 32 :   0.3750 0.3750 0.3750  plane waves:    1379
 k-point 33 :   0.5000 0.3750 0.3750  plane waves:    1386
 k-point 34 :   0.5000 0.5000 0.3750  plane waves:    1380
 k-point 35 :   0.5000 0.5000 0.5000  plane waves:    1376

 maximum and minimum number of plane-waves per node :      1406     1357

 maximum number of plane-waves:      1406
 maximum index in each direction:
   IXMAX=    6   IYMAX=    6   IZMAX=    6
   IXMIN=   -7   IYMIN=   -7   IZMIN=   -7

 NGX is ok and might be reduce to  28
 NGY is ok and might be reduce to  28
 NGZ is ok and might be reduce to  28

 serial   3D FFT for wavefunctions
 parallel 3D FFT for charge:
    minimum data exchange during FFTs selected (reduces bandwidth)

 Broyden mixing: mesh for mixing (old mesh)
   NGX = 13   NGY = 13   NGZ = 13
  (NGX  = 56   NGY  = 56   NGZ  = 56)
  gives a total of   2197 points

 initial charge density was supplied:
 charge density of overlapping atoms calculated
 number of electron      32.0000000 magnetization       5.0000000
 keeping initial charge density in first step

 Maximum index for augmentation-charges          861 (set IRDMAX)

 First call to EWALD:  gamma=   0.469
 Maximum number of real-space cells 3x 3x 3
 Maximum number of reciprocal cells 3x 3x 3

 FEWALD executed in parallel

----------------------------------------- Iteration    1(   1)  ---------------------------------------

 eigenvalue-minimisations  :  4480
 total energy-change (2. order) : 0.1210726E+03  (-0.1587883E+04)
 number of electron      32.0000000 magnetization       5.0000000
 augmentation part       32.0000000 magnetization       5.0000000

 Free energy of the ion-electron system (eV)
  alpha Z        PSCENC =       112.15924403
  Ewald energy   TEWEN  =     -2084.18796600
  -1/2 Hartree   DENC   =      -328.44610944
  -exchange  EXHF       =         0.00000000
  -V(xc)+E(xc)   XCENC  =        90.82222947
  PAW double counting   =      1749.17337288    -1721.93272674
  entropy T*S    EENTRO =        -0.00459423
  eigenvalues    EBANDS =        86.90630269
  atomic energy  EATOM  =      2216.58289728
  free energy    TOTEN  =       121.07264995 eV

  energy without entropy =      121.07724418  energy(sigma->0) =      121.07494706

[...]

 eigenvalue-minimisations  :  6432
 total energy-change (2. order) :-0.1618265E+03  (-0.1576192E+03)
 number of electron      32.0000000 magnetization       5.0000000
 augmentation part       32.0000000 magnetization       5.0000000

[...]

 Broyden mixing:
  rms(total) = 0.17148E+01    rms(broyden)= 0.17144E+01
  rms(prec ) = 0.34254E+01
  weight for this iteration     100.00

[...]

 eigenvalues of (default mixing * dielectric matrix)
  average eigenvalue GAMMA=   0.8060
  0.8060

[...]

 average (electrostatic) potential at core
  the test charge radii are     1.1480  1.0406  0.7215
  (the norm of the test charge is              1.0000)
       1 -93.6303       2 -69.6727       3 -65.2487       4 -65.2487       5 -65.2487

 E-fermi :   8.4687     XC(G=0): -11.8182     alpha+bet :-19.1759

 spin component 1

 k-point   1 :       0.0000    0.0000    0.0000
  band No.  band energies     occupation
      1     -22.3077      1.00000
      2     -10.0265      1.00000
      3      -7.9628      1.00000
      4      -7.9628      1.00000
      5      -5.8711      1.00000
      6      -5.8711      1.00000
      7      -5.8711      1.00000
      8       3.7031      1.00000
      9       3.7031      1.00000
     10       3.7031      1.00000
     11       6.6584      1.00000
     12       6.6584      1.00000
     13       6.6584      1.00000
     14       7.9947      1.00000
     15       7.9947      1.00000
     16       7.9947      1.00000
     17      11.6373      0.00000
     18      11.6373      0.00000
     19      12.7835      0.00000
     20      13.0236      0.00000
     21      13.0236      0.00000
     22      13.0236      0.00000
     23      13.2540      0.00000
     24      13.2540      0.00000
     25      13.2540      0.00000
     26      14.0529      0.00000
     27      14.0529      0.00000
     28      14.0529      0.00000
     29      14.9930      0.00000
     30      17.2950      0.00000
     31      23.8936      0.00000
     32      23.8936      0.00000

[...]

 soft charge-density along one line, spin component           1
         0         1         2         3         4         5         6         7         8         9
 total charge-density along one line

[...]

------------------------ aborting loop because EDIFF is reached ----------------------------------------

 total charge

# of ion     s       p       d       f       tot
  1        2.007   5.711   0.549   0.214   8.482
  2        0.306   0.411   0.000   0.000   0.717
  3        1.554   3.531   0.000   0.000   5.085
  4        1.552   3.583   0.000   0.000   5.136
  5        1.556   3.564   0.000   0.000   5.120
tot        6.976  16.801   0.549   0.214  24.540

 magnetization (x)

[...]

  FORCE on cell =-STRESS in cart. coord.  units (eV):
  Direction    XX          YY          ZZ          XY          YZ          ZX
  Alpha Z   112.15924   112.15924   112.15924
  Ewald    -694.72973  -694.72973  -694.72973    -0.00000     0.00000     0.00000
  Hartree   124.01202   124.01202   124.01202    -0.00000    -0.00000    -0.00000
  E(xc)    -140.59836  -140.59836  -140.59836     0.00000     0.00000     0.00000
  Local     -66.23301   -66.23301   -66.23301     0.00000     0.00000    -0.00000
  n-local    96.91339    94.89145    93.77519    -0.29727    -0.05030    -0.13114
  augment   -23.20279   -23.20279   -23.20279     0.00000     0.00000     0.00000
  Kinetic   581.86738   599.02616   603.71543    -3.92895    -4.18799    -2.37906
  Fock        0.00000     0.00000     0.00000     0.00000     0.00000     0.00000
  Total       1.47037     1.47037     1.47037     0.00000    -0.00000     0.00000
  in kB      43.51577    43.51577    43.51577     0.00000    -0.00000     0.00000

 VOLUME and BASIS-vectors are now :
  energy-cutoff  :      500.00
  volume of cell :       54.14
      direct lattice vectors                 reciprocal lattice vectors
     3.782948800  0.000000000  0.000000000     0.264344048 -0.000000000  0.000000000
     0.000000000  3.782948800  0.000000000     0.000000000  0.264344048  0.000000000
     0.000000000  0.000000000  3.782948800    -0.000000000 -0.000000000  0.264344048

[...]

 FORCES acting on ions
    electron-ion (+dipol)            ewald-force                    non-local-force                 convergence-correction
   -.183E-13 0.119E-11 -.395E-12   0.155E-13 -.589E-14 -.325E-14   -.221E-23 0.000E+00 0.000E+00   -.232E-13 -.710E-14 -.170E-13
   -.894E-14 -.624E-14 -.190E-14   -.144E-14 -.453E-14 -.428E-14   -.612E-24 0.000E+00 0.000E+00   0.345E-14 0.934E-15 0.273E-14
   0.551E-14 0.141E-12 -.749E-14   -.661E-15 0.713E-14 0.155E-14   0.132E-26 0.000E+00 -.165E-23   -.192E-13 -.165E-13 0.271E-14
   0.576E-14 0.758E-14 0.120E-12   -.137E-13 -.805E-15 0.537E-14   -.639E-24 0.000E+00 0.000E+00   -.182E-13 -.820E-14 -.269E-13
   0.139E-12 0.555E-14 -.225E-11   -.154E-15 0.433E-14 0.273E-15   -.651E-24 0.000E+00 0.207E-24   -.452E-13 -.129E-13 0.636E-14
   0.123E-12 0.133E-11 -.253E-11   -.534E-15 0.235E-15 -.326E-15   -.411E-23 0.000E+00 -.145E-23   -.102E-12 -.438E-13 -.321E-13

 POSITION                                       TOTAL-FORCE (eV/Angst)
      1.89147      1.89147      1.89147         0.000000      0.000000      0.000000
      0.00000      0.00000      0.00000        -0.000000      0.000000     -0.000000
      0.00000      1.89147      0.00000        -0.000000      0.000000      0.000000
      0.00000      0.00000      1.89147        -0.000000      0.000000      0.000000
      1.89147      0.00000      0.00000        -0.000000      0.000000      0.000000
    total drift:                                0.000000      0.000000     -0.000000

  FREE ENERGIE OF THE ION-ELECTRON SYSTEM (eV)
  free  energy   TOTEN  =       -39.98490419 eV

  energy  without entropy=      -39.98490419  energy(sigma->0) =      -39.98490419

[...]

 d Force = 0.0000000E+00[ 0.000E+00, 0.000E+00]  d Energy = 0.8132039E-03-0.813E-03
 d Force = 0.0000000E+00[ 0.000E+00, 0.000E+00]  d Ewald  =-0.2915463E+02 0.292E+02

 Steepest descent step on ions:
 trial-energy change:   -0.000813  1 .order   -0.001861   -0.062580    0.058858
  (g-gl).g = 0.626E-01      g.g   = 0.626E-01  gl.gl    = 0.000E+00
 g(Force)  = 0.271E-61   g(Stress)= 0.626E-01 ortho     = 0.000E+00
 gamma     =   0.00000
 trial     =   1.00000
 opt step  =   0.50238  (harmonic =   0.51533) maximal distance =0.00000000
 next E    =   -40.000491   (d E  =  -0.01559)

 FEWALD executed in parallel

[...]

 eigenvalue-minimisations  :  5952
 total energy-change (2. order) :-0.1079364E-03  (-0.3839514E-04)
 number of electron      31.9999981 magnetization       0.0000000
 augmentation part        0.2080491 magnetization      -0.0005388

[...]

 Broyden mixing:
  rms(total) = 0.13374E-02    rms(broyden)= 0.13360E-02
  rms(prec ) = 0.18274E-02
  weight for this iteration     100.00

 eigenvalues of (default mixing * dielectric matrix)
  average eigenvalue GAMMA=   1.3128
  2.6501  1.6753  0.8437  0.8437  0.5510

[...]

----------------------------------------- Iteration    3(   7)  ---------------------------------------

 eigenvalue-minimisations  :  6464
 total energy-change (2. order) : 0.3928140E-05  (-0.9258416E-06)
 number of electron      31.9999981 magnetization       0.0000000
 augmentation part        0.2075333 magnetization       0.0001792

 Free energy of the ion-electron system (eV)
  alpha Z        PSCENC =       109.79486302
  Ewald energy   TEWEN  =     -2069.43854172
  -1/2 Hartree   DENC   =      -376.93734667
  -exchange  EXHF       =         0.00000000
  -V(xc)+E(xc)   XCENC  =        93.19971716
  PAW double counting   =      2457.20356558    -2432.62385535
  entropy T*S    EENTRO =        -0.00000000
  eigenvalues    EBANDS =       -37.78176992
  atomic energy  EATOM  =      2216.58289728
  free energy    TOTEN  =       -40.00047064 eV

  energy without entropy =      -40.00047064  energy(sigma->0) =      -40.00047064

 average (electrostatic) potential at core
  the test charge radii are     1.1480  1.0406  0.7215
  (the norm of the test charge is              1.0000)
       1 -94.0018       2 -70.0143       3 -65.4849       4 -65.4849       5 -65.4849

 E-fermi :   8.0830     XC(G=0): -11.7072     alpha+bet :-18.7717

[...]

 spin component 2

[...]

 k-point  35 :       0.5000    0.5000    0.5000
  band No.  band energies     occupation
      1     -22.4087      1.00000
      2      -8.8712      1.00000
      3      -8.8712      1.00000
      4      -8.8712      1.00000
      5      -6.7612      1.00000
      6      -6.7612      1.00000
      7      -6.7612      1.00000
      8       0.4196      1.00000
      9       5.4829      1.00000
     10       5.4829      1.00000
     11       5.4829      1.00000
     12       6.4389      1.00000
     13       6.4389      1.00000
     14       7.8704      1.00000
     15       7.8704      1.00000
     16       7.8704      1.00000
     17      12.2878      0.00000
     18      12.2878      0.00000
     19      12.2878      0.00000
     20      12.5378      0.00000
     21      12.7997      0.00000
     22      12.7997      0.00000
     23      12.7997      0.00000
     24      13.3924      0.00000
     25      13.3924      0.00000
     26      13.3924      0.00000
     27      16.3351      0.00000
     28      16.3351      0.00000
     29      20.3308      0.00000
     30      21.0187      0.00000
     31      21.0187      0.00000
     32      21.0187      0.00000

[...]

 soft charge-density along one line, spin component           2
         0         1         2         3         4         5         6         7         8         9
 total charge-density along one line

------------------------ aborting loop because EDIFF is reached ----------------------------------------

[...]

  FORCE on cell =-STRESS in cart. coord.  units (eV):
  Direction    XX          YY          ZZ          XY          YZ          ZX
  Alpha Z   109.79486   109.79486   109.79486
  Ewald    -689.81326  -689.81326  -689.81326    -0.00000     0.00000     0.00000
  Hartree   125.64337   125.64337   125.64337    -0.00000    -0.00000    -0.00000
  E(xc)    -140.26885  -140.26885  -140.26885     0.00000     0.00000    -0.00000
  Local     -70.32170   -70.32170   -70.32170     0.00000    -0.00000    -0.00000
  n-local    96.74604    94.70218    93.60415    -0.28458    -0.03792    -0.12308
  augment   -23.18988   -23.18988   -23.18988     0.00000    -0.00000    -0.00000
  Kinetic   580.34993   597.24428   601.79850    -3.89092    -4.14307    -2.35731
  Fock        0.00000     0.00000     0.00000     0.00000     0.00000     0.00000
  Total      -0.00709    -0.00709    -0.00709    -0.00000    -0.00000    -0.00000
  in kB      -0.20548    -0.20548    -0.20548    -0.00000    -0.00000    -0.00000

 VOLUME and BASIS-vectors are now :
  energy-cutoff  :      500.00
  volume of cell :       55.30
      direct lattice vectors                 reciprocal lattice vectors
     3.809910856  0.000000000  0.000000000     0.262473333 -0.000000000 -0.000000000
     0.000000000  3.809910856  0.000000000    -0.000000000  0.262473333  0.000000000
     0.000000000 -0.000000000  3.809910856    -0.000000000 -0.000000000  0.262473333

  length of vectors
     3.809910856  3.809910856  3.809910856     0.262473333  0.262473333  0.262473333

 FORCES acting on ions
    electron-ion (+dipol)            ewald-force                    non-local-force                 convergence-correction
   -.244E-13 0.120E-11 -.382E-12   0.576E-14 0.937E-14 0.520E-16   -.185E-25 -.607E-28 0.000E+00   -.178E-14 -.868E-14 -.400E-14
   -.367E-14 -.412E-14 -.102E-14   0.145E-14 0.300E-15 0.101E-15   0.324E-25 0.250E-28 0.000E+00   0.993E-15 0.697E-15 0.652E-16
   0.566E-14 0.144E-12 -.920E-14   -.147E-14 0.359E-15 -.823E-15   0.344E-25 -.212E-26 0.000E+00   -.598E-14 -.207E-13 -.175E-13
   0.495E-14 0.751E-14 0.122E-12   -.381E-14 -.371E-14 0.388E-15   -.114E-24 0.122E-27 0.000E+00   -.538E-14 -.122E-13 -.166E-13
   0.145E-12 0.632E-14 -.225E-11   -.234E-14 -.562E-14 -.335E-15   -.313E-25 0.217E-26 0.000E+00   -.186E-13 -.164E-13 -.202E-13
   0.128E-12 0.135E-11 -.252E-11   -.400E-15 0.699E-15 -.617E-15   -.967E-25 0.142E-27 0.000E+00   -.308E-13 -.573E-13 -.583E-13

 POSITION                                       TOTAL-FORCE (eV/Angst)
      1.90496      1.90496      1.90496         0.000000      0.000000     -0.000000
     -0.00000     -0.00000     -0.00000        -0.000000      0.000000      0.000000
      0.00000      1.90496      0.00000        -0.000000      0.000000     -0.000000
      0.00000     -0.00000      1.90496        -0.000000     -0.000000     -0.000000
      1.90496      0.00000      0.00000        -0.000000      0.000000     -0.000000
    total drift:                                0.000000      0.000000     -0.000000

  FREE ENERGIE OF THE ION-ELECTRON SYSTEM (eV)
  free  energy   TOTEN  =       -40.00047064 eV

  energy  without entropy=      -40.00047064  energy(sigma->0) =      -40.00047064

 d Force = 0.0000000E+00[ 0.000E+00, 0.000E+00]  d Energy = 0.1475324E-01-0.148E-01
 d Force = 0.0000000E+00[ 0.000E+00, 0.000E+00]  d Ewald  = 0.1440520E+02-0.144E+02

 reached required accuracy - stopping structural energy minimisation
 writing wavefunctions

 total charge

[...]

 magnetization (x)

# of ion     s       p       d       f       tot
  1        0.000   0.000  -0.000   0.000   0.000
  2        0.000  -0.000   0.000   0.000  -0.000
  3        0.000  -0.000   0.000   0.000  -0.000
  4        0.000  -0.000   0.000   0.000  -0.000
  5        0.000  -0.000   0.000   0.000  -0.000
tot        0.000  -0.000  -0.000   0.000   0.000