 vasp.5.3.3 18Dez12 (build Jun 24 2015 15:58:02) complex

 executed on             LinuxIFC date 2023.04.23  19:45:47

 INCAR:
 POTCAR:    PAW_PBE C_h 06Feb2004

 POTCAR:    PAW_PBE C_h 06Feb2004
   VRHFIN =C: s2p2

   TITEL  = PAW_PBE C_h 06Feb2004
   POMASS =   12.011; ZVAL   =    4.000    mass and valenz
   ENMAX  =  700.000; ENMIN  =  500.000 eV

  PAW_PBE C_h 06Feb2004                 :

 POSCAR: Carbon diamond cubic
  positions in direct lattice
 exchange correlation table for  LEXCH =        8
   RHO(1)=    0.500       N(1)  =     2000
   RHO(2)=  100.500       N(2)  =     4000

 ion  position               nearest neighbor table
   1  0.000  0.000  0.000-   2 1.55   2 1.55   2 1.55   2 1.55
   2  0.250  0.250  0.250-   1 1.55   1 1.55   1 1.55   1 1.55

  LATTYP: Found a face centered cubic cell.
 ALAT       =     3.5700000000

  Lattice vectors:

 A1 = (   0.0000000000,   1.7850000000,   1.7850000000)
 A2 = (   1.7850000000,   0.0000000000,   1.7850000000)
 A3 = (   1.7850000000,   1.7850000000,   0.0000000000)

Analysis of symmetry for initial positions (statically):
 Subroutine PRICEL returns:
 Original cell was already a primitive cell.

 Routine SETGRP: Setting up the symmetry group for a
 face centered cubic supercell.

 Subroutine GETGRP returns: Found 48 space group operations
 (whereof 24 operations were pure point group operations)
 out of a pool of 48 trial point group operations.

The static configuration has the point symmetry T_d .
 The point group associated with its full space group is O_h .

Analysis of symmetry for dynamics (positions and initial velocities):
 Subroutine PRICEL returns:
 Original cell was already a primitive cell.

 Routine SETGRP: Setting up the symmetry group for a
 face centered cubic supercell.

 Subroutine GETGRP returns: Found 48 space group operations
 (whereof 24 operations were pure point group operations)
 out of a pool of 48 trial point group operations.

The dynamic configuration has the point symmetry T_d .
 The point group associated with its full space group is O_h .

Analysis of magnetic symmetry:

 Subroutine MAGSYM returns: Found 48 space group operations
 (whereof 24 operations were pure point group operations)
 out of a pool of 48 trial space group operations
 (whereof 24 operations were pure point group operations)
 and found also     1 'primitive' translations

The magnetic configuration has the point symmetry T_d .
 The point group associated with its full space group is O_h .

 irot  :   1
 isymop:   1   0   0
           0   1   0
           0   0   1

 gtrans:     0.0000000     0.0000000     0.0000000

 ptrans:     0.0000000     0.0000000     0.0000000
 rotmap:
 (   1->   1)  (   2->   2)

[...]

 irot  :  48
 isymop:   0   0  -1
           0  -1   0
          -1   0   0

 gtrans:     0.2500000     0.2500000     0.2500000

 ptrans:     0.0000000     0.0000000     0.0000000
 rotmap:
 (   1->   2)  (   2->   1)

 KPOINTS: Automatic mesh

Automatic generation of k-mesh.
Space group operators:
 irot       det(A)        alpha          n_x          n_y          n_z        tau_x        tau_y        tau_z
    1     1.000000     0.000000     1.000000     0.000000     0.000000     0.000000     0.000000     0.000000
    2     1.000000   120.000000    -0.577350    -0.577350    -0.577350     0.000000     0.000000     0.000000
    3     1.000000   120.000000     0.577350     0.577350     0.577350     0.000000     0.000000     0.000000
    4    -1.000000    90.000000     0.000000     0.000000    -1.000000     0.000000     0.000000     0.000000
    5    -1.000000   180.000000     0.000000     0.707107     0.707107     0.000000     0.000000     0.000000
    6    -1.000000    90.000000     0.000000     1.000000     0.000000     0.000000     0.000000     0.000000
    7     1.000000   180.000000     0.000000     0.000000     1.000000     0.000000     0.000000     0.000000
    8     1.000000   120.000000    -0.577350     0.577350     0.577350     0.000000     0.000000     0.000000
    9     1.000000   120.000000    -0.577350     0.577350    -0.577350     0.000000     0.000000     0.000000
   10    -1.000000    90.000000     0.000000     0.000000     1.000000     0.000000     0.000000     0.000000
   11    -1.000000    90.000000    -1.000000     0.000000     0.000000     0.000000     0.000000     0.000000
   12    -1.000000   180.000000     0.707107     0.000000     0.707107     0.000000     0.000000     0.000000
   13     1.000000   120.000000     0.577350    -0.577350     0.577350     0.000000     0.000000     0.000000
   14     1.000000   120.000000    -0.577350    -0.577350     0.577350     0.000000     0.000000     0.000000
   15     1.000000   180.000000     1.000000     0.000000     0.000000     0.000000     0.000000     0.000000
   16    -1.000000    90.000000     0.000000    -1.000000     0.000000     0.000000     0.000000     0.000000
   17    -1.000000   180.000000     0.707107     0.707107     0.000000     0.000000     0.000000     0.000000
   18    -1.000000    90.000000     1.000000     0.000000     0.000000     0.000000     0.000000     0.000000
   19     1.000000   120.000000     0.577350    -0.577350    -0.577350     0.000000     0.000000     0.000000
   20     1.000000   180.000000     0.000000     1.000000     0.000000     0.000000     0.000000     0.000000
   21     1.000000   120.000000     0.577350     0.577350    -0.577350     0.000000     0.000000     0.000000
   22    -1.000000   180.000000     0.000000    -0.707107     0.707107     0.000000     0.000000     0.000000
   23    -1.000000   180.000000     0.707107    -0.707107     0.000000     0.000000     0.000000     0.000000
   24    -1.000000   180.000000     0.707107     0.000000    -0.707107     0.000000     0.000000     0.000000
   25    -1.000000     0.000000     1.000000     0.000000     0.000000     0.250000     0.250000     0.250000
   26    -1.000000   120.000000    -0.577350    -0.577350    -0.577350     0.250000     0.250000     0.250000
   27    -1.000000   120.000000     0.577350     0.577350     0.577350     0.250000     0.250000     0.250000
   28     1.000000    90.000000     0.000000     0.000000    -1.000000     0.250000     0.250000     0.250000
   29     1.000000   180.000000     0.000000     0.707107     0.707107     0.250000     0.250000     0.250000
   30     1.000000    90.000000     0.000000     1.000000     0.000000     0.250000     0.250000     0.250000
   31    -1.000000   180.000000     0.000000     0.000000     1.000000     0.250000     0.250000     0.250000
   32    -1.000000   120.000000    -0.577350     0.577350     0.577350     0.250000     0.250000     0.250000
   33    -1.000000   120.000000    -0.577350     0.577350    -0.577350     0.250000     0.250000     0.250000
   34     1.000000    90.000000     0.000000     0.000000     1.000000     0.250000     0.250000     0.250000
   35     1.000000    90.000000    -1.000000     0.000000     0.000000     0.250000     0.250000     0.250000
   36     1.000000   180.000000     0.707107     0.000000     0.707107     0.250000     0.250000     0.250000
   37    -1.000000   120.000000     0.577350    -0.577350     0.577350     0.250000     0.250000     0.250000
   38    -1.000000   120.000000    -0.577350    -0.577350     0.577350     0.250000     0.250000     0.250000
   39    -1.000000   180.000000     1.000000     0.000000     0.000000     0.250000     0.250000     0.250000
   40     1.000000    90.000000     0.000000    -1.000000     0.000000     0.250000     0.250000     0.250000
   41     1.000000   180.000000     0.707107     0.707107     0.000000     0.250000     0.250000     0.250000
   42     1.000000    90.000000     1.000000     0.000000     0.000000     0.250000     0.250000     0.250000
   43    -1.000000   120.000000     0.577350    -0.577350    -0.577350     0.250000     0.250000     0.250000
   44    -1.000000   180.000000     0.000000     1.000000     0.000000     0.250000     0.250000     0.250000
   45    -1.000000   120.000000     0.577350     0.577350    -0.577350     0.250000     0.250000     0.250000
   46     1.000000   180.000000     0.000000    -0.707107     0.707107     0.250000     0.250000     0.250000
   47     1.000000   180.000000     0.707107    -0.707107     0.000000     0.250000     0.250000     0.250000
   48     1.000000   180.000000     0.707107     0.000000    -0.707107     0.250000     0.250000     0.250000

 Subroutine IBZKPT returns following result:

 Found     29 irreducible k-points:

 Following reciprocal coordinates:
            Coordinates               Weight
  0.000000  0.000000  0.000000      1.000000
  0.125000  0.000000  0.000000      8.000000
  0.250000  0.000000  0.000000      8.000000
  0.375000  0.000000  0.000000      8.000000
  0.500000  0.000000  0.000000      4.000000
  0.125000  0.125000  0.000000      6.000000
  0.250000  0.125000  0.000000     24.000000
  0.375000  0.125000  0.000000     24.000000
  0.500000  0.125000  0.000000     24.000000
 -0.375000  0.125000  0.000000     24.000000
 -0.250000  0.125000  0.000000     24.000000
 -0.125000  0.125000  0.000000     12.000000
  0.250000  0.250000  0.000000      6.000000
  0.375000  0.250000  0.000000     24.000000
  0.500000  0.250000  0.000000     24.000000
 -0.375000  0.250000  0.000000     24.000000
 -0.250000  0.250000  0.000000     12.000000
  0.375000  0.375000  0.000000      6.000000
  0.500000  0.375000  0.000000     24.000000
 -0.375000  0.375000  0.000000     12.000000
  0.500000  0.500000  0.000000      3.000000
  0.375000  0.250000  0.125000     24.000000
  0.500000  0.250000  0.125000     48.000000
 -0.375000  0.250000  0.125000     24.000000
  0.500000  0.375000  0.125000     24.000000
 -0.375000  0.375000  0.125000     48.000000
 -0.250000  0.375000  0.125000     24.000000
 -0.375000  0.500000  0.125000     12.000000
 -0.250000  0.500000  0.250000      6.000000

 Following cartesian coordinates:
            Coordinates               Weight
  0.000000  0.000000  0.000000      1.000000
 -0.125000  0.125000  0.125000      8.000000
 -0.250000  0.250000  0.250000      8.000000
 -0.375000  0.375000  0.375000      8.000000
 -0.500000  0.500000  0.500000      4.000000
  0.000000  0.000000  0.250000      6.000000
 -0.125000  0.125000  0.375000     24.000000
 -0.250000  0.250000  0.500000     24.000000
 -0.375000  0.375000  0.625000     24.000000
  0.500000 -0.500000 -0.250000     24.000000
  0.375000 -0.375000 -0.125000     24.000000
  0.250000 -0.250000  0.000000     12.000000
  0.000000  0.000000  0.500000      6.000000
 -0.125000  0.125000  0.625000     24.000000
 -0.250000  0.250000  0.750000     24.000000
  0.625000 -0.625000 -0.125000     24.000000
  0.500000 -0.500000  0.000000     12.000000
  0.000000  0.000000  0.750000      6.000000
 -0.125000  0.125000  0.875000     24.000000
  0.750000 -0.750000  0.000000     12.000000
  0.000000  0.000000  1.000000      3.000000
  0.000000  0.250000  0.500000     24.000000
 -0.125000  0.375000  0.625000     48.000000
  0.750000 -0.500000 -0.250000     24.000000
 -0.000000  0.250000  0.750000     24.000000
  0.875000 -0.625000 -0.125000     48.000000
  0.750000 -0.500000  0.000000     24.000000
[...]
   0.37500000  0.25000000  0.12500000       0.047
   0.50000000  0.25000000  0.12500000       0.094
  -0.37500000  0.25000000  0.12500000       0.047
   0.50000000  0.37500000  0.12500000       0.047
  -0.37500000  0.37500000  0.12500000       0.094
  -0.25000000  0.37500000  0.12500000       0.047
  -0.37500000  0.50000000  0.12500000       0.023
  -0.25000000  0.50000000  0.25000000       0.012

 position of ions in fractional coordinates (direct lattice)
   0.00000000  0.00000000  0.00000000
   0.25000000  0.25000000  0.25000000

 position of ions in cartesian coordinates  (Angst):
   0.00000000  0.00000000  0.00000000
   0.89250000  0.89250000  0.89250000

 k-point  1 :   0.0000 0.0000 0.0000  plane waves:     283
 k-point  2 :   0.1250 0.0000 0.0000  plane waves:     295
 k-point  3 :   0.2500 0.0000 0.0000  plane waves:     296
 k-point  4 :   0.3750 0.0000 0.0000  plane waves:     287
 k-point  5 :   0.5000 0.0000 0.0000  plane waves:     272
 k-point  6 :   0.1250 0.1250 0.0000  plane waves:     295
 k-point  7 :   0.2500 0.1250 0.0000  plane waves:     295
 k-point  8 :   0.3750 0.1250 0.0000  plane waves:     286
 k-point  9 :   0.5000 0.1250 0.0000  plane waves:     283
 k-point 10 :  -0.3750 0.1250 0.0000  plane waves:     285
 k-point 11 :  -0.2500 0.1250 0.0000  plane waves:     292
 k-point 12 :  -0.1250 0.1250 0.0000  plane waves:     297
 k-point 13 :   0.2500 0.2500 0.0000  plane waves:     303
 k-point 14 :   0.3750 0.2500 0.0000  plane waves:     292
 k-point 15 :   0.5000 0.2500 0.0000  plane waves:     290
 k-point 16 :  -0.3750 0.2500 0.0000  plane waves:     286
 k-point 17 :  -0.2500 0.2500 0.0000  plane waves:     283
 k-point 18 :   0.3750 0.3750 0.0000  plane waves:     286
 k-point 19 :   0.5000 0.3750 0.0000  plane waves:     291
 k-point 20 :  -0.3750 0.3750 0.0000  plane waves:     288
 k-point 21 :   0.5000 0.5000 0.0000  plane waves:     302
 k-point 22 :   0.3750 0.2500 0.1250  plane waves:     296
 k-point 23 :   0.5000 0.2500 0.1250  plane waves:     289
 k-point 24 :  -0.3750 0.2500 0.1250  plane waves:     284
 k-point 25 :   0.5000 0.3750 0.1250  plane waves:     290
 k-point 26 :  -0.3750 0.3750 0.1250  plane waves:     286
 k-point 27 :  -0.2500 0.3750 0.1250  plane waves:     286
 k-point 28 :  -0.3750 0.5000 0.1250  plane waves:     286
 k-point 29 :  -0.2500 0.5000 0.2500  plane waves:     280

 maximum and minimum number of plane-waves per node :       303      272

 maximum number of plane-waves:       303
 maximum index in each direction:
   IXMAX=    4   IYMAX=    4   IZMAX=    4
   IXMIN=   -5   IYMIN=   -5   IZMIN=   -4

 WARNING: aliasing errors must be expected set NGX to  20 to avoid them
 WARNING: aliasing errors must be expected set NGY to  20 to avoid them
 NGZ is ok and might be reduce to  18
 aliasing errors are usually negligible using standard VASP settings
 and one can safely disregard these warnings

 serial   3D FFT for wavefunctions
 parallel 3D FFT for charge:
    minimum data exchange during FFTs selected (reduces bandwidth)

 Broyden mixing: mesh for mixing (old mesh)
   NGX =  9   NGY =  9   NGZ =  9
  (NGX  = 36   NGY  = 36   NGZ  = 36)
  gives a total of    729 points

 initial charge density was supplied:
 charge density of overlapping atoms calculated
 number of electron       8.0000000 magnetization       2.0000000
 keeping initial charge density in first step

 Maximum index for augmentation-charges          460 (set IRDMAX)

 First call to EWALD:  gamma=   0.788
 Maximum number of real-space cells 3x 3x 3
 Maximum number of reciprocal cells 3x 3x 3

 FEWALD executed in parallel

----------------------------------------- Iteration    1(   1)  ---------------------------------------

 BZINTS: Fermi energy: 11.606005;  8.000000 electrons
         Band energy:   9.086604;  BLOECHL correction:  0.000000

 eigenvalue-minimisations  :  4800
 total energy-change (2. order) :-0.1664212E+02  (-0.5169851E+03)
 number of electron       8.0000000 magnetization       2.0000000
 augmentation part        8.0000000 magnetization       2.0000000

 Free energy of the ion-electron system (eV)
  alpha Z        PSCENC =        19.27792381
  Ewald energy   TEWEN  =      -347.64704212
  -1/2 Hartree   DENC   =       -17.55372841
  -exchange  EXHF       =         0.00000000
  -V(xc)+E(xc)   XCENC  =        15.86513148
  PAW double counting   =       228.44294322     -217.90869979
  entropy T*S    EENTRO =         0.00000000
  eigenvalues    EBANDS =         9.08660433
  atomic energy  EATOM  =       293.79474529
  free energy    TOTEN  =       -16.64212219 eV

  energy without entropy =      -16.64212219  energy(sigma->0) =      -16.64212219

[...]

 Broyden mixing:
  rms(total) = 0.21860E+01    rms(broyden)= 0.21859E+01
  rms(prec ) = 0.27820E+01
  weight for this iteration     100.00

[...]

 eigenvalues of (default mixing * dielectric matrix)
  average eigenvalue GAMMA=   0.9533
  0.9533

[...]

 eigenvalue-minimisations  :  5120
 total energy-change (2. order) : 0.2835019E+00  (-0.2209831E-01)
 number of electron       8.0000000 magnetization       0.0737755
 augmentation part       -0.0362033 magnetization       0.0733367

[...]

 average (electrostatic) potential at core
  the test charge radii are     0.5770
  (the norm of the test charge is              1.0000)
       1 -71.8122       2 -71.8122

 E-fermi :  11.1550     XC(G=0): -13.3751     alpha+bet :-18.5862

 spin component 1

 k-point   1 :       0.0000    0.0000    0.0000
  band No.  band energies     occupation
      1     -10.5720      1.00000
      2      11.0888      1.00000
      3      11.0888      1.00000
      4      11.0888      1.00000
      5      16.6083      0.00000
      6      16.6083      0.00000
      7      16.6083      0.00000
      8      24.0809      0.00000
      9      30.1303      0.00000
     10      37.3952      0.00000
     11      37.3952      0.00000
     12      38.4500      0.00000
     13      38.4500      0.00000
     14      38.4500      0.00000
     15      45.6392      0.00000
     16      58.1971      0.00000
     17      58.1971      0.00000
     18      58.1971      0.00000
     19      77.9854      0.00000
     20      77.9854      0.00000
     21      77.9854      0.00000
     22      82.3496      0.00000
     23      82.3496      0.00000
     24      85.2186      0.00000
     25      85.2186      0.00000
     26      85.2186      0.00000
     27      90.3992      0.00000
     28      90.3992      0.00000
     29      90.3992      0.00000
     30      97.5513      0.00000
     31     109.5277      0.00000
     32     109.5277      0.00000

[...]

 soft charge-density along one line, spin component           1
         0         1         2         3         4         5         6         7         8         9
 total charge-density along one line

[...]

------------------------ aborting loop because EDIFF is reached ----------------------------------------

 total charge

# of ion     s       p       d       tot
  1        0.453   1.055   0.000   1.509
  2        0.453   1.055   0.000   1.509
tot        0.907   2.111   0.000   3.017

 magnetization (x)

[...]

  FORCE on cell =-STRESS in cart. coord.  units (eV):
  Direction    XX          YY          ZZ          XY          YZ          ZX
  Alpha Z    19.27792    19.27792    19.27792
  Ewald    -115.88240  -115.88240  -115.88240    -0.00000     0.00000     0.00000
  Hartree     8.70910     8.70910     8.70910     0.00000     0.00000     0.00000
  E(xc)     -33.02537   -33.02537   -33.02537     0.00000     0.00000     0.00000
  Local     -33.83386   -33.83386   -33.83386     0.00001     0.00001     0.00001
  n-local     7.07733     7.63930     6.58395    -0.59668     0.13138    -0.10774
  augment     0.23518     0.23518     0.23518    -0.00001    -0.00001    -0.00001
  Kinetic   147.64005   142.09708   145.33185     6.38462    -2.07328     2.26925
  Fock        0.00000     0.00000     0.00000     0.00000     0.00000     0.00000
  Total      -2.39624    -2.39624    -2.39624     0.00000    -0.00000     0.00000
  in kB    -337.51797  -337.51797  -337.51797     0.00000    -0.00000     0.00000

 VOLUME and BASIS-vectors are now :
  energy-cutoff  :      500.00
  volume of cell :       11.37
      direct lattice vectors                 reciprocal lattice vectors
     0.000000000  1.785000000  1.785000000    -0.280112045  0.280112045  0.280112045
     1.785000000  0.000000000  1.785000000     0.280112045 -0.280112045  0.280112045
     1.785000000  1.785000000  0.000000000     0.280112045  0.280112045 -0.280112045

[...]

 FORCES acting on ions
    electron-ion (+dipol)            ewald-force                    non-local-force                 convergence-correction
   0.277E-06 0.277E-06 0.316E-06   -.615E-14 -.832E-14 -.782E-14   -.201E-15 -.208E-15 -.208E-15   0.607E-07 0.607E-07 0.607E-07
   -.265E-06 -.265E-06 -.353E-06   0.573E-14 0.866E-14 0.894E-14   0.180E-15 0.215E-15 0.205E-15   -.607E-07 -.607E-07 -.607E-07
   0.129E-07 0.129E-07 -.373E-07   -.415E-15 0.343E-15 0.111E-14   -.208E-16 0.694E-17 -.347E-17   0.210E-12 0.210E-12 -.185E-12

 POSITION                                       TOTAL-FORCE (eV/Angst)
      0.00000      0.00000      0.00000         0.000000     -0.000000      0.000000
      0.89250      0.89250      0.89250        -0.000000      0.000000     -0.000000
    total drift:                                0.000000      0.000000     -0.000000

  FREE ENERGIE OF THE ION-ELECTRON SYSTEM (eV)
  free  energy   TOTEN  =       -17.94048325 eV

  energy  without entropy=      -17.94048325  energy(sigma->0) =      -17.94048325

[...]

 d Force = 0.0000000E+00[ 0.000E+00, 0.000E+00]  d Energy =-0.1922343E+00 0.192E+00
 d Force = 0.0000000E+00[ 0.000E+00, 0.000E+00]  d Ewald  = 0.2132691E+02-0.213E+02

 Steepest descent step on ions:
 trial-energy change:    0.192234  1 .order    0.210486   -0.415513    0.836484
  (g-gl).g = 0.416E+00      g.g   = 0.416E+00  gl.gl    = 0.000E+00
 g(Force)  = 0.276E-46   g(Stress)= 0.416E+00 ortho     = 0.000E+00
 gamma     =   0.00000
 trial     =   1.00000
 opt step  =   0.35183  (harmonic =   0.33188) maximal distance =0.00000000
 next E    =   -18.014372   (d E  =  -0.07389)

[...]

 d Force = 0.0000000E+00[ 0.000E+00, 0.000E+00]  d Energy = 0.2698757E+00-0.270E+00
 d Force = 0.0000000E+00[ 0.000E+00, 0.000E+00]  d Ewald  =-0.1411048E+02 0.141E+02

 FEWALD executed in parallel

[...]

 eigenvalue-minimisations  :  3968
 total energy-change (2. order) :-0.1215186E-03  (-0.1241280E-03)
 number of electron       8.0000000 magnetization       0.0000041
 augmentation part       -0.0318243 magnetization       0.0000042

[...]

 Broyden mixing:
  rms(total) = 0.27216E-02    rms(broyden)= 0.27214E-02
  rms(prec ) = 0.55294E-02
  weight for this iteration     100.00

 eigenvalues of (default mixing * dielectric matrix)
  average eigenvalue GAMMA=   2.0802
  2.0802

[...]

----------------------------------------- Iteration    4(   3)  ---------------------------------------

[...]

 eigenvalue-minimisations  :  3808
 total energy-change (2. order) : 0.4380585E-05  (-0.1060562E-05)
 number of electron       8.0000000 magnetization      -0.0000086
 augmentation part       -0.0318241 magnetization      -0.0000087

 Free energy of the ion-electron system (eV)
  alpha Z        PSCENC =        20.54678699
  Ewald energy   TEWEN  =      -355.11288034
  -1/2 Hartree   DENC   =       -25.29946492
  -exchange  EXHF       =         0.00000000
  -V(xc)+E(xc)   XCENC  =        16.84058603
  PAW double counting   =     12639.01947180   -12628.62599058
  entropy T*S    EENTRO =         0.00000000
  eigenvalues    EBANDS =        20.81851728
  atomic energy  EATOM  =       293.79474529
  free energy    TOTEN  =       -18.01822845 eV

  energy without entropy =      -18.01822845  energy(sigma->0) =      -18.01822845

 average (electrostatic) potential at core
  the test charge radii are     0.5770
  (the norm of the test charge is              1.0000)
       1 -70.6856       2 -70.6856

 E-fermi :  12.1172     XC(G=0): -13.7024     alpha+bet :-19.8095

[...]

 spin component 2

[...]

 k-point  29 :      -0.2500    0.5000    0.2500
  band No.  band energies     occupation
      1      -0.3955      1.00000
      2      -0.3955      1.00000
      3       3.1361      1.00000
      4       3.1361      1.00000
      5      22.9360      0.00000
      6      22.9360      0.00000
      7      25.1281      0.00000
      8      25.1281      0.00000
      9      34.4201      0.00000
     10      34.4201      0.00000
     11      43.4810      0.00000
     12      43.4810      0.00000
     13      56.3904      0.00000
     14      56.3904      0.00000
     15      59.1119      0.00000
     16      59.1119      0.00000
     17      61.6108      0.00000
     18      61.6108      0.00000
     19      69.5798      0.00000
     20      69.5798      0.00000
     21      70.9248      0.00000
     22      70.9248      0.00000
     23      82.1461      0.00000
     24      82.1461      0.00000
     25      83.5843      0.00000
     26      83.5843      0.00000
     27      83.9286      0.00000
     28      83.9286      0.00000
     29      99.6221      0.00000
     30      99.6221      0.00000
     31     101.3251      0.00000
     32     101.3251      0.00000

[...]

 soft charge-density along one line, spin component           2
         0         1         2         3         4         5         6         7         8         9
 total charge-density along one line

------------------------ aborting loop because EDIFF is reached ----------------------------------------

[...]

  FORCE on cell =-STRESS in cart. coord.  units (eV):
  Direction    XX          YY          ZZ          XY          YZ          ZX
  Alpha Z    20.54679    20.54679    20.54679
  Ewald    -118.37101  -118.37101  -118.37101    -0.00000     0.00000     0.00000
  Hartree     8.43322     8.43322     8.43322     0.00000     0.00000     0.00000
  E(xc)     -33.53748   -33.53748   -33.53748    -0.00000    -0.00000    -0.00000
  Local     -32.58258   -32.58258   -32.58258     0.00001     0.00001     0.00001
  n-local     6.48003     7.16523     5.71573    -0.52238     0.06610    -0.07333
  augment     0.21033     0.21033     0.21033    -0.00001    -0.00001    -0.00001
  Kinetic   151.37238   145.17780   149.96769     6.40756    -2.03737     2.31787
  Fock        0.00000     0.00000     0.00000     0.00000     0.00000     0.00000
  Total      -0.00778    -0.00778    -0.00778     0.00000     0.00000     0.00000
  in kB      -1.16792    -1.16792    -1.16792     0.00000     0.00000     0.00000

 VOLUME and BASIS-vectors are now :
  energy-cutoff  :      500.00
  volume of cell :       10.67
      direct lattice vectors                 reciprocal lattice vectors
    -0.000000000  1.747472436  1.747472436    -0.286127546  0.286127546  0.286127546
     1.747472436 -0.000000000  1.747472436     0.286127546 -0.286127546  0.286127546
     1.747472436  1.747472436  0.000000000     0.286127546  0.286127546 -0.286127546

  length of vectors
     2.471299219  2.471299219  2.471299219     0.495587447  0.495587447  0.495587447

 FORCES acting on ions
    electron-ion (+dipol)            ewald-force                    non-local-force                 convergence-correction
   0.109E-06 0.109E-06 0.195E-06   -.642E-14 -.912E-14 -.142E-13   0.222E-15 0.271E-15 0.191E-15   0.150E-06 0.150E-06 0.150E-06
   -.158E-06 -.158E-06 -.110E-06   0.629E-14 0.933E-14 0.140E-13   -.222E-15 -.271E-15 -.226E-15   -.150E-06 -.150E-06 -.150E-06
   -.485E-07 -.485E-07 0.851E-07   -.131E-15 0.215E-15 -.201E-15   0.000E+00 0.000E+00 -.347E-16   0.103E-13 0.927E-14 -.523E-14

 POSITION                                       TOTAL-FORCE (eV/Angst)
      0.00000     -0.00000      0.00000        -0.000000     -0.000000     -0.000000
      0.87374      0.87374      0.87374         0.000000      0.000000      0.000000
    total drift:                               -0.000000     -0.000000      0.000000

  FREE ENERGIE OF THE ION-ELECTRON SYSTEM (eV)
  free  energy   TOTEN  =       -18.01822845 eV

  energy  without entropy=      -18.01822845  energy(sigma->0) =      -18.01822845

 d Force = 0.0000000E+00[ 0.000E+00, 0.000E+00]  d Energy = 0.1037310E-03-0.104E-03
 d Force = 0.0000000E+00[ 0.000E+00, 0.000E+00]  d Ewald  = 0.2494147E+00-0.249E+00

 reached required accuracy - stopping structural energy minimisation
 writing wavefunctions

 total charge

[...]

 magnetization (x)

# of ion     s       p       d       tot
  1       -0.000   0.000   0.000   0.000
  2       -0.000   0.000   0.000   0.000
tot       -0.000   0.000   0.000   0.000

 BZINTS: Fermi energy: 12.117161;  8.000000 electrons
         Band energy:  20.818517;  BLOECHL correction:  0.000000