 vasp.5.3.3 18Dez12 (build Jun 24 2015 15:58:02) complex

 executed on             LinuxIFC date 2023.04.23  21:15:13

 INCAR:
 POTCAR:    PAW_PBE Si 05Jan2001

 POTCAR:    PAW_PBE Si 05Jan2001
   VRHFIN =Si: s2p2

   TITEL  = PAW_PBE Si 05Jan2001
   POMASS =   28.085; ZVAL   =    4.000    mass and valenz
   ENMAX  =  245.345; ENMIN  =  184.009 eV

  PAW_PBE Si 05Jan2001                  :

 POSCAR: Si Diamond Cubic
  positions in direct lattice
 exchange correlation table for  LEXCH =        8
   RHO(1)=    0.500       N(1)  =     2000
   RHO(2)=  100.500       N(2)  =     4000

 ion  position               nearest neighbor table
   1  0.000  0.000  0.000-   2 2.35   2 2.35   2 2.35   2 2.35
   2  0.250  0.250  0.250-   1 2.35   1 2.35   1 2.35   1 2.35

  LATTYP: Found a face centered cubic cell.
 ALAT       =     5.4300000000

  Lattice vectors:

 A1 = (   0.0000000000,   2.7150000000,   2.7150000000)
 A2 = (   2.7150000000,   0.0000000000,   2.7150000000)
 A3 = (   2.7150000000,   2.7150000000,   0.0000000000)

Analysis of symmetry for initial positions (statically):
 Subroutine PRICEL returns:
 Original cell was already a primitive cell.

 Routine SETGRP: Setting up the symmetry group for a
 face centered cubic supercell.

 Subroutine GETGRP returns: Found 48 space group operations
 (whereof 24 operations were pure point group operations)
 out of a pool of 48 trial point group operations.

The static configuration has the point symmetry T_d .
 The point group associated with its full space group is O_h .

Analysis of symmetry for dynamics (positions and initial velocities):
 Subroutine PRICEL returns:
 Original cell was already a primitive cell.

 Routine SETGRP: Setting up the symmetry group for a
 face centered cubic supercell.

 Subroutine GETGRP returns: Found 48 space group operations
 (whereof 24 operations were pure point group operations)
 out of a pool of 48 trial point group operations.

The dynamic configuration has the point symmetry T_d .
 The point group associated with its full space group is O_h .

Analysis of magnetic symmetry:

 Subroutine MAGSYM returns: Found 48 space group operations
 (whereof 24 operations were pure point group operations)
 out of a pool of 48 trial space group operations
 (whereof 24 operations were pure point group operations)
 and found also     1 'primitive' translations

The magnetic configuration has the point symmetry T_d .
 The point group associated with its full space group is O_h .

 irot  :   1
 isymop:   1   0   0
           0   1   0
           0   0   1

 gtrans:     0.0000000     0.0000000     0.0000000

 ptrans:     0.0000000     0.0000000     0.0000000
 rotmap:
 (   1->   1)  (   2->   2)

[...]

 irot  :  48
 isymop:   0   0  -1
           0  -1   0
          -1   0   0

 gtrans:     0.2500000     0.2500000     0.2500000

 ptrans:     0.0000000     0.0000000     0.0000000
 rotmap:
 (   1->   2)  (   2->   1)

 KPOINTS: Automatic mesh

Automatic generation of k-mesh.
Space group operators:
 irot       det(A)        alpha          n_x          n_y          n_z        tau_x        tau_y        tau_z
    1     1.000000     0.000001     1.000000     0.000000     0.000000     0.000000     0.000000     0.000000
    2     1.000000   120.000000    -0.577350    -0.577350    -0.577350     0.000000     0.000000     0.000000
    3     1.000000   120.000000     0.577350     0.577350     0.577350     0.000000     0.000000     0.000000
    4    -1.000000    90.000000     0.000000     0.000000    -1.000000     0.000000     0.000000     0.000000
    5    -1.000000   180.000000     0.000000     0.707107     0.707107     0.000000     0.000000     0.000000
    6    -1.000000    90.000000     0.000000     1.000000     0.000000     0.000000     0.000000     0.000000
    7     1.000000   180.000000     0.000000     0.000000     1.000000     0.000000     0.000000     0.000000
    8     1.000000   120.000000    -0.577350     0.577350     0.577350     0.000000     0.000000     0.000000
    9     1.000000   120.000000    -0.577350     0.577350    -0.577350     0.000000     0.000000     0.000000
   10    -1.000000    90.000000     0.000000     0.000000     1.000000     0.000000     0.000000     0.000000
   11    -1.000000    90.000000    -1.000000     0.000000     0.000000     0.000000     0.000000     0.000000
   12    -1.000000   180.000000     0.707107     0.000000     0.707107     0.000000     0.000000     0.000000
   13     1.000000   120.000000     0.577350    -0.577350     0.577350     0.000000     0.000000     0.000000
   14     1.000000   120.000000    -0.577350    -0.577350     0.577350     0.000000     0.000000     0.000000
   15     1.000000   180.000000     1.000000     0.000000     0.000000     0.000000     0.000000     0.000000
   16    -1.000000    90.000000     0.000000    -1.000000     0.000000     0.000000     0.000000     0.000000
   17    -1.000000   180.000000     0.707107     0.707107     0.000000     0.000000     0.000000     0.000000
   18    -1.000000    90.000000     1.000000     0.000000     0.000000     0.000000     0.000000     0.000000
   19     1.000000   120.000000     0.577350    -0.577350    -0.577350     0.000000     0.000000     0.000000
   20     1.000000   180.000000     0.000000     1.000000     0.000000     0.000000     0.000000     0.000000
   21     1.000000   120.000000     0.577350     0.577350    -0.577350     0.000000     0.000000     0.000000
   22    -1.000000   180.000000     0.000000    -0.707107     0.707107     0.000000     0.000000     0.000000
   23    -1.000000   180.000000     0.707107    -0.707107     0.000000     0.000000     0.000000     0.000000
   24    -1.000000   180.000000     0.707107     0.000000    -0.707107     0.000000     0.000000     0.000000
   25    -1.000000     0.000001     1.000000     0.000000     0.000000     0.250000     0.250000     0.250000
   26    -1.000000   120.000000    -0.577350    -0.577350    -0.577350     0.250000     0.250000     0.250000
   27    -1.000000   120.000000     0.577350     0.577350     0.577350     0.250000     0.250000     0.250000
   28     1.000000    90.000000     0.000000     0.000000    -1.000000     0.250000     0.250000     0.250000
   29     1.000000   180.000000     0.000000     0.707107     0.707107     0.250000     0.250000     0.250000
   30     1.000000    90.000000     0.000000     1.000000     0.000000     0.250000     0.250000     0.250000
   31    -1.000000   180.000000     0.000000     0.000000     1.000000     0.250000     0.250000     0.250000
   32    -1.000000   120.000000    -0.577350     0.577350     0.577350     0.250000     0.250000     0.250000
   33    -1.000000   120.000000    -0.577350     0.577350    -0.577350     0.250000     0.250000     0.250000
   34     1.000000    90.000000     0.000000     0.000000     1.000000     0.250000     0.250000     0.250000
   35     1.000000    90.000000    -1.000000     0.000000     0.000000     0.250000     0.250000     0.250000
   36     1.000000   180.000000     0.707107     0.000000     0.707107     0.250000     0.250000     0.250000
   37    -1.000000   120.000000     0.577350    -0.577350     0.577350     0.250000     0.250000     0.250000
   38    -1.000000   120.000000    -0.577350    -0.577350     0.577350     0.250000     0.250000     0.250000
   39    -1.000000   180.000000     1.000000     0.000000     0.000000     0.250000     0.250000     0.250000
   40     1.000000    90.000000     0.000000    -1.000000     0.000000     0.250000     0.250000     0.250000
   41     1.000000   180.000000     0.707107     0.707107     0.000000     0.250000     0.250000     0.250000
   42     1.000000    90.000000     1.000000     0.000000     0.000000     0.250000     0.250000     0.250000
   43    -1.000000   120.000000     0.577350    -0.577350    -0.577350     0.250000     0.250000     0.250000
   44    -1.000000   180.000000     0.000000     1.000000     0.000000     0.250000     0.250000     0.250000
   45    -1.000000   120.000000     0.577350     0.577350    -0.577350     0.250000     0.250000     0.250000
   46     1.000000   180.000000     0.000000    -0.707107     0.707107     0.250000     0.250000     0.250000
   47     1.000000   180.000000     0.707107    -0.707107     0.000000     0.250000     0.250000     0.250000
   48     1.000000   180.000000     0.707107     0.000000    -0.707107     0.250000     0.250000     0.250000

 Subroutine IBZKPT returns following result:

 Found     29 irreducible k-points:

 Following reciprocal coordinates:
            Coordinates               Weight
  0.000000  0.000000  0.000000      1.000000
  0.125000  0.000000  0.000000      8.000000
  0.250000  0.000000  0.000000      8.000000
  0.375000  0.000000  0.000000      8.000000
  0.500000  0.000000  0.000000      4.000000
  0.125000  0.125000  0.000000      6.000000
  0.250000  0.125000  0.000000     24.000000
  0.375000  0.125000  0.000000     24.000000
  0.500000  0.125000  0.000000     24.000000
 -0.375000  0.125000  0.000000     24.000000
 -0.250000  0.125000  0.000000     24.000000
 -0.125000  0.125000  0.000000     12.000000
  0.250000  0.250000  0.000000      6.000000
  0.375000  0.250000  0.000000     24.000000
  0.500000  0.250000  0.000000     24.000000
 -0.375000  0.250000  0.000000     24.000000
 -0.250000  0.250000  0.000000     12.000000
  0.375000  0.375000  0.000000      6.000000
  0.500000  0.375000  0.000000     24.000000
 -0.375000  0.375000  0.000000     12.000000
  0.500000  0.500000  0.000000      3.000000
  0.375000  0.250000  0.125000     24.000000
  0.500000  0.250000  0.125000     48.000000
 -0.375000  0.250000  0.125000     24.000000
  0.500000  0.375000  0.125000     24.000000
 -0.375000  0.375000  0.125000     48.000000
 -0.250000  0.375000  0.125000     24.000000
 -0.375000  0.500000  0.125000     12.000000
 -0.250000  0.500000  0.250000      6.000000

 Following cartesian coordinates:
            Coordinates               Weight
  0.000000  0.000000  0.000000      1.000000
 -0.125000  0.125000  0.125000      8.000000
 -0.250000  0.250000  0.250000      8.000000
 -0.375000  0.375000  0.375000      8.000000
 -0.500000  0.500000  0.500000      4.000000
  0.000000  0.000000  0.250000      6.000000
 -0.125000  0.125000  0.375000     24.000000
 -0.250000  0.250000  0.500000     24.000000
 -0.375000  0.375000  0.625000     24.000000
  0.500000 -0.500000 -0.250000     24.000000
  0.375000 -0.375000 -0.125000     24.000000
  0.250000 -0.250000  0.000000     12.000000
  0.000000  0.000000  0.500000      6.000000
 -0.125000  0.125000  0.625000     24.000000
 -0.250000  0.250000  0.750000     24.000000
  0.625000 -0.625000 -0.125000     24.000000
  0.500000 -0.500000  0.000000     12.000000
  0.000000  0.000000  0.750000      6.000000
 -0.125000  0.125000  0.875000     24.000000
  0.750000 -0.750000  0.000000     12.000000
  0.000000  0.000000  1.000000      3.000000
 -0.000000  0.250000  0.500000     24.000000
 -0.125000  0.375000  0.625000     48.000000
  0.750000 -0.500000 -0.250000     24.000000
  0.000000  0.250000  0.750000     24.000000
  0.875000 -0.625000 -0.125000     48.000000
  0.750000 -0.500000  0.000000     24.000000
[...]
   0.75000000 -0.50000000  0.00000000       0.047
   1.00000000 -0.75000000 -0.00000000       0.023
   1.00000000 -0.50000000  0.00000000       0.012

 k-points in reciprocal lattice and weights: Automatic mesh
   0.00000000  0.00000000  0.00000000       0.002
   0.12500000  0.00000000  0.00000000       0.016
   0.25000000  0.00000000  0.00000000       0.016
   0.37500000  0.00000000  0.00000000       0.016
   0.50000000  0.00000000  0.00000000       0.008
   0.12500000  0.12500000  0.00000000       0.012
   0.25000000  0.12500000  0.00000000       0.047
   0.37500000  0.12500000  0.00000000       0.047
   0.50000000  0.12500000  0.00000000       0.047
  -0.37500000  0.12500000  0.00000000       0.047
  -0.25000000  0.12500000  0.00000000       0.047
  -0.12500000  0.12500000  0.00000000       0.023
   0.25000000  0.25000000  0.00000000       0.012
   0.37500000  0.25000000  0.00000000       0.047
   0.50000000  0.25000000  0.00000000       0.047
  -0.37500000  0.25000000  0.00000000       0.047
  -0.25000000  0.25000000  0.00000000       0.023
   0.37500000  0.37500000  0.00000000       0.012
   0.50000000  0.37500000  0.00000000       0.047
  -0.37500000  0.37500000  0.00000000       0.023
   0.50000000  0.50000000  0.00000000       0.006
   0.37500000  0.25000000  0.12500000       0.047
   0.50000000  0.25000000  0.12500000       0.094
  -0.37500000  0.25000000  0.12500000       0.047
   0.50000000  0.37500000  0.12500000       0.047
  -0.37500000  0.37500000  0.12500000       0.094
  -0.25000000  0.37500000  0.12500000       0.047
  -0.37500000  0.50000000  0.12500000       0.023
  -0.25000000  0.50000000  0.25000000       0.012

 position of ions in fractional coordinates (direct lattice)
   0.00000000  0.00000000  0.00000000
   0.25000000  0.25000000  0.25000000

 position of ions in cartesian coordinates  (Angst):
   0.00000000  0.00000000  0.00000000
   1.35750000  1.35750000  1.35750000

 k-point  1 :   0.0000 0.0000 0.0000  plane waves:     965
 k-point  2 :   0.1250 0.0000 0.0000  plane waves:     989
 k-point  3 :   0.2500 0.0000 0.0000  plane waves:    1001
 k-point  4 :   0.3750 0.0000 0.0000  plane waves:    1017
 k-point  5 :   0.5000 0.0000 0.0000  plane waves:    1008
 k-point  6 :   0.1250 0.1250 0.0000  plane waves:     994
 k-point  7 :   0.2500 0.1250 0.0000  plane waves:    1002
 k-point  8 :   0.3750 0.1250 0.0000  plane waves:    1004
 k-point  9 :   0.5000 0.1250 0.0000  plane waves:    1015
 k-point 10 :  -0.3750 0.1250 0.0000  plane waves:    1016
 k-point 11 :  -0.2500 0.1250 0.0000  plane waves:    1008
 k-point 12 :  -0.1250 0.1250 0.0000  plane waves:     997
 k-point 13 :   0.2500 0.2500 0.0000  plane waves:     998
 k-point 14 :   0.3750 0.2500 0.0000  plane waves:    1021
 k-point 15 :   0.5000 0.2500 0.0000  plane waves:    1014
 k-point 16 :  -0.3750 0.2500 0.0000  plane waves:    1009
 k-point 17 :  -0.2500 0.2500 0.0000  plane waves:    1019
 k-point 18 :   0.3750 0.3750 0.0000  plane waves:    1026
 k-point 19 :   0.5000 0.3750 0.0000  plane waves:    1011
 k-point 20 :  -0.3750 0.3750 0.0000  plane waves:    1011
 k-point 21 :   0.5000 0.5000 0.0000  plane waves:    1034
 k-point 22 :   0.3750 0.2500 0.1250  plane waves:    1019
 k-point 23 :   0.5000 0.2500 0.1250  plane waves:    1018
 k-point 24 :  -0.3750 0.2500 0.1250  plane waves:    1034
 k-point 25 :   0.5000 0.3750 0.1250  plane waves:    1026
 k-point 26 :  -0.3750 0.3750 0.1250  plane waves:    1019
 k-point 27 :  -0.2500 0.3750 0.1250  plane waves:    1017
 k-point 28 :  -0.3750 0.5000 0.1250  plane waves:    1012
 k-point 29 :  -0.2500 0.5000 0.2500  plane waves:    1036

 maximum and minimum number of plane-waves per node :      1036      965

 maximum number of plane-waves:      1036
 maximum index in each direction:
   IXMAX=    7   IYMAX=    6   IZMAX=    7
   IXMIN=   -7   IYMIN=   -7   IZMIN=   -7

 WARNING: aliasing errors must be expected set NGX to  30 to avoid them
 NGY is ok and might be reduce to  28
 WARNING: aliasing errors must be expected set NGZ to  30 to avoid them
 aliasing errors are usually negligible using standard VASP settings
 and one can safely disregard these warnings

 serial   3D FFT for wavefunctions
 parallel 3D FFT for charge:
    minimum data exchange during FFTs selected (reduces bandwidth)

 Broyden mixing: mesh for mixing (old mesh)
   NGX = 13   NGY = 13   NGZ = 13
  (NGX  = 56   NGY  = 56   NGZ  = 56)
  gives a total of   2197 points

 initial charge density was supplied:
 charge density of overlapping atoms calculated
 number of electron       8.0000000 magnetization       2.0000000
 keeping initial charge density in first step

 Maximum index for augmentation-charges         2245 (set IRDMAX)

 First call to EWALD:  gamma=   0.518
 Maximum number of real-space cells 3x 3x 3
 Maximum number of reciprocal cells 3x 3x 3

 FEWALD executed in parallel

----------------------------------------- Iteration    1(   1)  ---------------------------------------

 BZINTS: Fermi energy:  8.805012;  8.000000 electrons
         Band energy:  20.015282;  BLOECHL correction: -0.097200

 eigenvalue-minimisations  :  1872
 total energy-change (2. order) : 0.6767657E+01  (-0.2888873E+03)
 number of electron       8.0000000 magnetization       2.0000000
 augmentation part        8.0000000 magnetization       2.0000000

 Free energy of the ion-electron system (eV)
  alpha Z        PSCENC =         3.36414726
  Ewald energy   TEWEN  =      -228.56352493
  -1/2 Hartree   DENC   =       -11.00108242
  -exchange  EXHF       =         0.00000000
  -V(xc)+E(xc)   XCENC  =       -18.37848594
  PAW double counting   =       176.06834157     -140.86953430
  entropy T*S    EENTRO =         0.00000000
  eigenvalues    EBANDS =        20.01528208
  atomic energy  EATOM  =       206.13251344
  free energy    TOTEN  =         6.76765677 eV

  energy without entropy =        6.76765677  energy(sigma->0) =        6.76765677

[...]

 eigenvalue-minimisations  :  2512
 total energy-change (2. order) :-0.1676453E+02  (-0.1610906E+02)
 number of electron       8.0000000 magnetization       2.0000000
 augmentation part        8.0000000 magnetization       2.0000000

[...]

 Broyden mixing:
  rms(total) = 0.61054E+00    rms(broyden)= 0.61054E+00
  rms(prec ) = 0.10239E+01
  weight for this iteration     100.00

[...]

 eigenvalues of (default mixing * dielectric matrix)
  average eigenvalue GAMMA=   0.7745
  0.7745

[...]

 average (electrostatic) potential at core
  the test charge radii are     0.9892
  (the norm of the test charge is              1.0000)
       1 -83.2428       2 -83.2428

 E-fermi :   5.9076     XC(G=0):  -9.4102     alpha+bet :-11.9845

 spin component 1

 k-point   1 :       0.0000    0.0000    0.0000
  band No.  band energies     occupation
      1      -6.1292      1.00000
      2       5.8314      1.00000
      3       5.8314      1.00000
      4       5.8314      1.00000
      5       8.3965      0.00000
      6       8.3965      0.00000
      7       8.3965      0.00000
      8       9.2095      0.00000
      9      13.5508      0.00000
     10      13.5508      0.00000
     11      13.7902      0.00000
     12      17.0839      0.00000
     13      17.0839      0.00000
     14      17.0839      0.00000
     15      21.2362      0.00000
     16      28.9398      0.00000

[...]

 soft charge-density along one line, spin component           1
         0         1         2         3         4         5         6         7         8         9
 total charge-density along one line

[...]

------------------------ aborting loop because EDIFF is reached ----------------------------------------

 total charge

# of ion     s       p       d       tot
  1        0.750   0.943   0.000   1.694
  2        0.750   0.943   0.000   1.694
tot        1.501   1.887   0.000   3.387

 magnetization (x)

[...]

  FORCE on cell =-STRESS in cart. coord.  units (eV):
  Direction    XX          YY          ZZ          XY          YZ          ZX
  Alpha Z     3.36415     3.36415     3.36415
  Ewald     -76.18788   -76.18788   -76.18788     0.00000    -0.00000     0.00000
  Hartree     4.97657     4.97657     4.97657     0.00000     0.00000     0.00000
  E(xc)     -25.37103   -25.37103   -25.37103     0.00000     0.00000     0.00000
  Local     -29.22043   -29.22043   -29.22043     0.00001     0.00001     0.00001
  n-local    78.96811    80.11956    74.40616     2.26854    -1.21828     0.61519
  augment   -11.64832   -11.64832   -11.64832    -0.00001    -0.00001    -0.00001
  Kinetic    58.78984    56.32332    55.14433     3.52743    -0.73814     0.99360
  Fock        0.00000     0.00000     0.00000     0.00000     0.00000     0.00000
  Total       0.49683     0.49683     0.49683     0.00000     0.00000     0.00000
  in kB      19.88749    19.88749    19.88749     0.00000     0.00000     0.00000

 VOLUME and BASIS-vectors are now :
  energy-cutoff  :      500.00
  volume of cell :       40.03
      direct lattice vectors                 reciprocal lattice vectors
     0.000000000  2.715000000  2.715000000    -0.184162063  0.184162063  0.184162063
     2.715000000  0.000000000  2.715000000     0.184162063 -0.184162063  0.184162063
     2.715000000  2.715000000  0.000000000     0.184162063  0.184162063 -0.184162063

[...]

 FORCES acting on ions
    electron-ion (+dipol)            ewald-force                    non-local-force                 convergence-correction
   0.801E-08 0.801E-08 0.458E-08   0.132E-14 -.451E-14 -.305E-14   0.625E-16 0.971E-16 0.520E-16   0.273E-09 0.273E-09 0.273E-09
   -.801E-08 -.801E-08 -.458E-08   -.113E-14 0.493E-14 0.317E-14   -.694E-16 -.763E-16 -.590E-16   -.273E-09 -.273E-09 -.273E-09
   0.100E-12 0.330E-13 -.137E-13   0.187E-15 0.422E-15 0.120E-15   -.694E-17 0.208E-16 -.694E-17   -.406E-15 -.653E-15 -.107E-14

 POSITION                                       TOTAL-FORCE (eV/Angst)
      0.00000      0.00000      0.00000         0.000000      0.000000      0.000000
      1.35750      1.35750      1.35750        -0.000000     -0.000000     -0.000000
    total drift:                                0.000000      0.000000     -0.000000

  FREE ENERGIE OF THE ION-ELECTRON SYSTEM (eV)
  free  energy   TOTEN  =       -10.84077309 eV

  energy  without entropy=      -10.84077309  energy(sigma->0) =      -10.84077309

[...]

 d Force = 0.0000000E+00[ 0.000E+00, 0.000E+00]  d Energy = 0.2849656E-02-0.285E-02
 d Force = 0.0000000E+00[ 0.000E+00, 0.000E+00]  d Ewald  =-0.2706720E+01 0.271E+01

 Steepest descent step on ions:
 trial-energy change:   -0.002850  1 .order   -0.003157   -0.017862    0.011549
  (g-gl).g = 0.179E-01      g.g   = 0.179E-01  gl.gl    = 0.000E+00
 g(Force)  = 0.151E-49   g(Stress)= 0.179E-01 ortho     = 0.000E+00
 gamma     =   0.00000
 trial     =   1.00000
 opt step  =   0.59220  (harmonic =   0.60732) maximal distance =0.00000000
 next E    =   -10.845998   (d E  =  -0.00523)

 FEWALD executed in parallel

[...]

 eigenvalue-minimisations  :  2280
 total energy-change (2. order) : 0.3950179E-03  (-0.6400087E-04)
 number of electron       8.0000000 magnetization      -0.0000003
 augmentation part       -0.4580673 magnetization      -0.0000003

 Broyden mixing:
  rms(total) = 0.37450E-02    rms(broyden)= 0.37450E-02
  rms(prec ) = 0.42896E-02
  weight for this iteration     100.00

 eigenvalues of (default mixing * dielectric matrix)
  average eigenvalue GAMMA=   1.5095
  0.7121  2.3068

[...]

----------------------------------------- Iteration    3(   4)  ---------------------------------------

[...]

 eigenvalue-minimisations  :  2032
 total energy-change (2. order) :-0.2063760E-05  (-0.1932931E-05)
 number of electron       8.0000000 magnetization      -0.0000003
 augmentation part       -0.4580673 magnetization      -0.0000003

 Free energy of the ion-electron system (eV)
  alpha Z        PSCENC =         3.29352493
  Ewald energy   TEWEN  =      -226.95281687
  -1/2 Hartree   DENC   =       -15.18173750
  -exchange  EXHF       =         0.00000000
  -V(xc)+E(xc)   XCENC  =       -18.05939465
  PAW double counting   =       836.13777472     -801.15476360
  entropy T*S    EENTRO =         0.00000000
  eigenvalues    EBANDS =         4.93891621
  atomic energy  EATOM  =       206.13251344
  free energy    TOTEN  =       -10.84598331 eV

  energy without entropy =      -10.84598331  energy(sigma->0) =      -10.84598331

 average (electrostatic) potential at core
  the test charge radii are     0.9892
  (the norm of the test charge is              1.0000)
       1 -83.4790       2 -83.4790

 E-fermi :   5.7196     XC(G=0):  -9.3262     alpha+bet :-11.7329

[...]

 spin component 2

[...]

 k-point  29 :      -0.2500    0.5000    0.2500
  band No.  band energies     occupation
      1      -1.9737      1.00000
      2      -1.9737      1.00000
      3       1.8566      1.00000
      4       1.8566      1.00000
      5       9.8889      0.00000
      6       9.8889      0.00000
      7      10.5502      0.00000
      8      10.5502      0.00000
      9      16.0708      0.00000
     10      16.0708      0.00000
     11      18.4901      0.00000
     12      18.4901      0.00000
     13      21.9225      0.00000
     14      21.9225      0.00000
     15      24.0229      0.00000
     16      24.0229      0.00000

[...]

 soft charge-density along one line, spin component           2
         0         1         2         3         4         5         6         7         8         9
 total charge-density along one line

------------------------ aborting loop because EDIFF is reached ----------------------------------------

[...]

  FORCE on cell =-STRESS in cart. coord.  units (eV):
  Direction    XX          YY          ZZ          XY          YZ          ZX
  Alpha Z     3.29352     3.29352     3.29352
  Ewald     -75.65097   -75.65097   -75.65097     0.00000     0.00000    -0.00000
  Hartree     5.06139     5.06139     5.06139     0.00000     0.00000     0.00000
  E(xc)     -25.24907   -25.24907   -25.24907    -0.00000    -0.00000    -0.00000
  Local     -29.51681   -29.51681   -29.51681     0.00001     0.00001     0.00001
  n-local    78.56985    79.71720    74.03083     2.22265    -1.18799     0.59641
  augment   -11.64219   -11.64219   -11.64219    -0.00001    -0.00001    -0.00001
  Kinetic    58.30844    55.99280    54.49947     3.52682    -0.77004     0.99474
  Fock        0.00000     0.00000     0.00000     0.00000     0.00000     0.00000
  Total       0.00207     0.00207     0.00207    -0.00000    -0.00000     0.00000
  in kB       0.08104     0.08104     0.08104    -0.00000    -0.00000     0.00000

 VOLUME and BASIS-vectors are now :
  energy-cutoff  :      500.00
  volume of cell :       40.88
      direct lattice vectors                 reciprocal lattice vectors
     0.000000000  2.734268641  2.734268641    -0.182864256  0.182864256  0.182864256
     2.734268641  0.000000000  2.734268641     0.182864256 -0.182864256  0.182864256
     2.734268641  2.734268641  0.000000000     0.182864256  0.182864256 -0.182864256

  length of vectors
     3.866839795  3.866839795  3.866839795     0.316730182  0.316730182  0.316730182

 FORCES acting on ions
    electron-ion (+dipol)            ewald-force                    non-local-force                 convergence-correction
   0.924E-08 0.924E-08 0.557E-08   -.176E-14 0.488E-15 -.180E-14   -.971E-16 -.971E-16 -.658E-16   0.643E-08 0.643E-08 0.643E-08
   -.924E-08 -.924E-08 -.557E-08   0.164E-14 -.267E-15 0.150E-14   0.833E-16 0.111E-15 0.762E-16   -.643E-08 -.643E-08 -.643E-08
   0.119E-12 0.378E-13 -.243E-13   -.122E-15 0.221E-15 -.302E-15   -.139E-16 0.139E-16 0.104E-16   -.169E-14 -.169E-15 -.825E-15

 POSITION                                       TOTAL-FORCE (eV/Angst)
      0.00000      0.00000      0.00000        -0.000000     -0.000000      0.000000
      1.36713      1.36713      1.36713         0.000000      0.000000     -0.000000
    total drift:                                0.000000      0.000000     -0.000000

  FREE ENERGIE OF THE ION-ELECTRON SYSTEM (eV)
  free  energy   TOTEN  =       -10.84598331 eV

  energy  without entropy=      -10.84598331  energy(sigma->0) =      -10.84598331

 d Force = 0.0000000E+00[ 0.000E+00, 0.000E+00]  d Energy = 0.2360566E-02-0.236E-02
 d Force = 0.0000000E+00[ 0.000E+00, 0.000E+00]  d Ewald  = 0.1096012E+01-0.110E+01

 reached required accuracy - stopping structural energy minimisation
 writing wavefunctions

 total charge

[...]

 magnetization (x)

# of ion     s       p       d       tot
  1        0.000   0.000   0.000   0.000
  2        0.000   0.000   0.000   0.000
tot        0.000   0.000   0.000   0.000

 BZINTS: Fermi energy:  5.719619;  8.000000 electrons
         Band energy:   4.938916;  BLOECHL correction:  0.000000